864
Lattice="25.062483632077395 0.0 7.646329506e-07 0.0 25.3228192542564 0.0 8.292414582e-07 0.0 27.13001319608115" Properties=species:S:1:pos:R:3 pbc="T T T"
C        0.27388789       3.16535241       8.47589234
C        8.08027362       9.49605722       0.56744565
C        3.90319315       9.49605722       3.95422359
C        4.45096834       3.16535241       5.08911440
N        8.01047169       3.16535241       0.77813448
N        0.34368976       9.49605722       8.26520351
N        4.52077074       9.49605722       5.29980388
N        3.83339075       3.16535241       3.74353410
H        8.31541470       4.01009043       1.31369829
H        0.03874694       8.65131919       7.72963990
H        4.21582734       8.65131917       5.83536649
H        4.13833391       4.01009045       3.20797124
H        0.03874694      10.34079525       7.72963990
H        8.31541470       2.32061438       1.31369829
H        4.13833391       2.32061436       3.20797124
H        4.21582734      10.34079527       5.83536649
H        6.96601743       3.16535241       0.71172580
H        1.38814418       9.49605722       8.33161232
H        5.56522440       9.49605722       5.23339465
H        2.78893709       3.16535241       3.80994334
H        8.30361787       4.06732483       7.93707102
H        0.05054384       8.59408479       1.10626669
H        4.22762430       8.59408466       3.41540225
H        4.12653694       4.06732497       5.62793601
H        0.05054384      10.39802965       1.10626669
H        8.30361787       2.26337998       7.93707102
H        4.12653694       2.26337984       5.62793601
H        4.22762430      10.39802979       3.41540225
H        1.36827933       3.16535241       8.58791153
H        6.98588203       9.49605722       0.45542666
H        2.80880140       9.49605722       4.06624270
H        5.54536009       3.16535241       4.97709502
Pb       0.00000014       0.00000000       4.52166887
Pb       4.17708061       0.00000000       0.00000013
Pb       0.00000014       6.33070481       4.52166887
Pb       4.17708061       6.33070481       0.00000013
I        0.32061170       3.16535241       4.62657696
I        8.03354970       9.49605722       4.41676103
I        3.85646918       9.49605722       0.10490849
I        4.49769231       3.16535241       8.93842950
I        2.64033318      12.37871483       6.26851387
I        5.71382806       0.28269500       2.77482411
I        1.53674733       0.28269502       1.74684541
I        6.81741441      12.37871481       7.29649258
I        5.71382806       6.04800981       2.77482411
I        2.64033318       6.61339945       6.26851387
I        6.81741441       6.61339946       7.29649258
I        1.53674733       6.04800980       1.74684541
C        0.27388817       3.16535241      17.51923007
C        8.08027390       9.49605722       9.61078338
C        3.90319343       9.49605722      12.99756132
C        4.45096861       3.16535241      14.13245213
N        8.01047197       3.16535241       9.82147221
N        0.34369004       9.49605722      17.30854124
N        4.52077101       9.49605722      14.34314162
N        3.83339103       3.16535241      12.78687184
H        8.31541498       4.01009043      10.35703602
H        0.03874721       8.65131919      16.77297763
H        4.21582761       8.65131917      14.87870422
H        4.13833419       4.01009045      12.25130897
H        0.03874721      10.34079525      16.77297763
H        8.31541498       2.32061438      10.35703602
H        4.13833419       2.32061436      12.25130897
H        4.21582761      10.34079527      14.87870422
H        6.96601770       3.16535241       9.75506353
H        1.38814446       9.49605722      17.37495005
H        5.56522467       9.49605722      14.27673238
H        2.78893737       3.16535241      12.85328107
H        8.30361815       4.06732483      16.98040875
H        0.05054412       8.59408479      10.14960443
H        4.22762458       8.59408466      12.45873998
H        4.12653721       4.06732497      14.67127374
H        0.05054412      10.39802965      10.14960443
H        8.30361815       2.26337998      16.98040875
H        4.12653721       2.26337984      14.67127374
H        4.22762458      10.39802979      12.45873998
H        1.36827961       3.16535241      17.63124926
H        6.98588230       9.49605722       9.49876439
H        2.80880167       9.49605722      13.10958043
H        5.54536037       3.16535241      14.02043275
Pb       0.00000041       0.00000000      13.56500660
Pb       4.17708088       0.00000000       9.04333786
Pb       0.00000041       6.33070481      13.56500660
Pb       4.17708088       6.33070481       9.04333786
I        0.32061197       3.16535241      13.66991469
I        8.03354998       9.49605722      13.46009876
I        3.85646945       9.49605722       9.14824622
I        4.49769259       3.16535241      17.98176723
I        2.64033345      12.37871483      15.31185161
I        5.71382834       0.28269500      11.81816185
I        1.53674761       0.28269502      10.79018314
I        6.81741468      12.37871481      16.33983031
I        5.71382834       6.04800981      11.81816185
I        2.64033345       6.61339945      15.31185161
I        6.81741468       6.61339946      16.33983031
I        1.53674761       6.04800980      10.79018314
C        0.27388844       3.16535241      26.56256780
C        8.08027417       9.49605722      18.65412111
C        3.90319370       9.49605722      22.04089905
C        4.45096889       3.16535241      23.17578987
N        8.01047224       3.16535241      18.86480994
N        0.34369032       9.49605722      26.35187897
N        4.52077129       9.49605722      23.38647935
N        3.83339130       3.16535241      21.83020957
H        8.31541525       4.01009043      19.40037375
H        0.03874749       8.65131919      25.81631536
H        4.21582789       8.65131917      23.92204195
H        4.13833446       4.01009045      21.29464670
H        0.03874749      10.34079525      25.81631536
H        8.31541525       2.32061438      19.40037375
H        4.13833446       2.32061436      21.29464670
H        4.21582789      10.34079527      23.92204195
H        6.96601798       3.16535241      18.79840127
H        1.38814474       9.49605722      26.41828778
H        5.56522495       9.49605722      23.32007011
H        2.78893764       3.16535241      21.89661880
H        8.30361842       4.06732483      26.02374648
H        0.05054440       8.59408479      19.19294216
H        4.22762485       8.59408466      21.50207771
H        4.12653749       4.06732497      23.71461148
H        0.05054440      10.39802965      19.19294216
H        8.30361842       2.26337998      26.02374648
H        4.12653749       2.26337984      23.71461148
H        4.22762485      10.39802979      21.50207771
H        1.36827989       3.16535241      26.67458699
H        6.98588258       9.49605722      18.54210212
H        2.80880195       9.49605722      22.15291816
H        5.54536064       3.16535241      23.06377048
Pb       0.00000069       0.00000000      22.60834433
Pb       4.17708116       0.00000000      18.08667559
Pb       0.00000069       6.33070481      22.60834433
Pb       4.17708116       6.33070481      18.08667559
I        0.32061225       3.16535241      22.71325242
I        8.03355025       9.49605722      22.50343649
I        3.85646973       9.49605722      18.19158395
I        4.49769286       3.16535241      27.02510496
I        2.64033373      12.37871483      24.35518934
I        5.71382861       0.28269500      20.86149958
I        1.53674788       0.28269502      19.83352087
I        6.81741496      12.37871481      25.38316804
I        5.71382861       6.04800981      20.86149958
I        2.64033373       6.61339945      24.35518934
I        6.81741496       6.61339946      25.38316804
I        1.53674788       6.04800980      19.83352087
C        0.27388789      15.82676203       8.47589234
C        8.08027362      22.15746685       0.56744565
C        3.90319315      22.15746685       3.95422359
C        4.45096834      15.82676203       5.08911440
N        8.01047169      15.82676203       0.77813448
N        0.34368976      22.15746685       8.26520351
N        4.52077074      22.15746685       5.29980388
N        3.83339075      15.82676203       3.74353410
H        8.31541470      16.67150006       1.31369829
H        0.03874694      21.31272882       7.72963990
H        4.21582734      21.31272880       5.83536649
H        4.13833391      16.67150008       3.20797124
H        0.03874694      23.00220487       7.72963990
H        8.31541470      14.98202401       1.31369829
H        4.13833391      14.98202399       3.20797124
H        4.21582734      23.00220490       5.83536649
H        6.96601743      15.82676203       0.71172580
H        1.38814418      22.15746685       8.33161232
H        5.56522440      22.15746685       5.23339465
H        2.78893709      15.82676203       3.80994334
H        8.30361787      16.72873446       7.93707102
H        0.05054384      21.25549442       1.10626669
H        4.22762430      21.25549428       3.41540225
H        4.12653694      16.72873460       5.62793601
H        0.05054384      23.05943927       1.10626669
H        8.30361787      14.92478961       7.93707102
H        4.12653694      14.92478947       5.62793601
H        4.22762430      23.05943941       3.41540225
H        1.36827933      15.82676203       8.58791153
H        6.98588203      22.15746685       0.45542666
H        2.80880140      22.15746685       4.06624270
H        5.54536009      15.82676203       4.97709502
Pb       0.00000014      12.66140963       4.52166887
Pb       4.17708061      12.66140963       0.00000013
Pb       0.00000014      18.99211444       4.52166887
Pb       4.17708061      18.99211444       0.00000013
I        0.32061170      15.82676203       4.62657696
I        8.03354970      22.15746685       4.41676103
I        3.85646918      22.15746685       0.10490849
I        4.49769231      15.82676203       8.93842950
I        2.64033318      25.04012446       6.26851387
I        5.71382806      12.94410463       2.77482411
I        1.53674733      12.94410464       1.74684541
I        6.81741441      25.04012444       7.29649258
I        5.71382806      18.70941944       2.77482411
I        2.64033318      19.27480907       6.26851387
I        6.81741441      19.27480909       7.29649258
I        1.53674733      18.70941942       1.74684541
C        0.27388817      15.82676203      17.51923007
C        8.08027390      22.15746685       9.61078338
C        3.90319343      22.15746685      12.99756132
C        4.45096861      15.82676203      14.13245213
N        8.01047197      15.82676203       9.82147221
N        0.34369004      22.15746685      17.30854124
N        4.52077101      22.15746685      14.34314162
N        3.83339103      15.82676203      12.78687184
H        8.31541498      16.67150006      10.35703602
H        0.03874721      21.31272882      16.77297763
H        4.21582761      21.31272880      14.87870422
H        4.13833419      16.67150008      12.25130897
H        0.03874721      23.00220487      16.77297763
H        8.31541498      14.98202401      10.35703602
H        4.13833419      14.98202399      12.25130897
H        4.21582761      23.00220490      14.87870422
H        6.96601770      15.82676203       9.75506353
H        1.38814446      22.15746685      17.37495005
H        5.56522467      22.15746685      14.27673238
H        2.78893737      15.82676203      12.85328107
H        8.30361815      16.72873446      16.98040875
H        0.05054412      21.25549442      10.14960443
H        4.22762458      21.25549428      12.45873998
H        4.12653721      16.72873460      14.67127374
H        0.05054412      23.05943927      10.14960443
H        8.30361815      14.92478961      16.98040875
H        4.12653721      14.92478947      14.67127374
H        4.22762458      23.05943941      12.45873998
H        1.36827961      15.82676203      17.63124926
H        6.98588230      22.15746685       9.49876439
H        2.80880167      22.15746685      13.10958043
H        5.54536037      15.82676203      14.02043275
Pb       0.00000041      12.66140963      13.56500660
Pb       4.17708088      12.66140963       9.04333786
Pb       0.00000041      18.99211444      13.56500660
Pb       4.17708088      18.99211444       9.04333786
I        0.32061197      15.82676203      13.66991469
I        8.03354998      22.15746685      13.46009876
I        3.85646945      22.15746685       9.14824622
I        4.49769259      15.82676203      17.98176723
I        2.64033345      25.04012446      15.31185161
I        5.71382834      12.94410463      11.81816185
I        1.53674761      12.94410464      10.79018314
I        6.81741468      25.04012444      16.33983031
I        5.71382834      18.70941944      11.81816185
I        2.64033345      19.27480907      15.31185161
I        6.81741468      19.27480909      16.33983031
I        1.53674761      18.70941942      10.79018314
C        0.27388844      15.82676203      26.56256780
C        8.08027417      22.15746685      18.65412111
C        3.90319370      22.15746685      22.04089905
C        4.45096889      15.82676203      23.17578987
N        8.01047224      15.82676203      18.86480994
N        0.34369032      22.15746685      26.35187897
N        4.52077129      22.15746685      23.38647935
N        3.83339130      15.82676203      21.83020957
H        8.31541525      16.67150006      19.40037375
H        0.03874749      21.31272882      25.81631536
H        4.21582789      21.31272880      23.92204195
H        4.13833446      16.67150008      21.29464670
H        0.03874749      23.00220487      25.81631536
H        8.31541525      14.98202401      19.40037375
H        4.13833446      14.98202399      21.29464670
H        4.21582789      23.00220490      23.92204195
H        6.96601798      15.82676203      18.79840127
H        1.38814474      22.15746685      26.41828778
H        5.56522495      22.15746685      23.32007011
H        2.78893764      15.82676203      21.89661880
H        8.30361842      16.72873446      26.02374648
H        0.05054440      21.25549442      19.19294216
H        4.22762485      21.25549428      21.50207771
H        4.12653749      16.72873460      23.71461148
H        0.05054440      23.05943927      19.19294216
H        8.30361842      14.92478961      26.02374648
H        4.12653749      14.92478947      23.71461148
H        4.22762485      23.05943941      21.50207771
H        1.36827989      15.82676203      26.67458699
H        6.98588258      22.15746685      18.54210212
H        2.80880195      22.15746685      22.15291816
H        5.54536064      15.82676203      23.06377048
Pb       0.00000069      12.66140963      22.60834433
Pb       4.17708116      12.66140963      18.08667559
Pb       0.00000069      18.99211444      22.60834433
Pb       4.17708116      18.99211444      18.08667559
I        0.32061225      15.82676203      22.71325242
I        8.03355025      22.15746685      22.50343649
I        3.85646973      22.15746685      18.19158395
I        4.49769286      15.82676203      27.02510496
I        2.64033373      25.04012446      24.35518934
I        5.71382861      12.94410463      20.86149958
I        1.53674788      12.94410464      19.83352087
I        6.81741496      25.04012444      25.38316804
I        5.71382861      18.70941944      20.86149958
I        2.64033373      19.27480907      24.35518934
I        6.81741496      19.27480909      25.38316804
I        1.53674788      18.70941942      19.83352087
C        8.62804910       3.16535241       8.47589259
C       16.43443483       9.49605722       0.56744590
C       12.25735436       9.49605722       3.95422384
C       12.80512955       3.16535241       5.08911466
N       16.36463290       3.16535241       0.77813473
N        8.69785097       9.49605722       8.26520376
N       12.87493195       9.49605722       5.29980414
N       12.18755196       3.16535241       3.74353436
H       16.66957591       4.01009043       1.31369854
H        8.39290815       8.65131919       7.72964015
H       12.56998855       8.65131917       5.83536674
H       12.49249512       4.01009045       3.20797149
H        8.39290815      10.34079525       7.72964015
H       16.66957591       2.32061438       1.31369854
H       12.49249512       2.32061436       3.20797149
H       12.56998855      10.34079527       5.83536674
H       15.32017864       3.16535241       0.71172606
H        9.74230540       9.49605722       8.33161258
H       13.91938561       9.49605722       5.23339490
H       11.14309830       3.16535241       3.80994359
H       16.65777908       4.06732483       7.93707128
H        8.40470505       8.59408479       1.10626695
H       12.58178551       8.59408466       3.41540250
H       12.48069815       4.06732497       5.62793627
H        8.40470505      10.39802965       1.10626695
H       16.65777908       2.26337998       7.93707128
H       12.48069815       2.26337984       5.62793627
H       12.58178551      10.39802979       3.41540250
H        9.72244054       3.16535241       8.58791179
H       15.34004324       9.49605722       0.45542691
H       11.16296261       9.49605722       4.06624296
H       13.89952130       3.16535241       4.97709527
Pb       8.35416135       0.00000000       4.52166912
Pb      12.53124182       0.00000000       0.00000038
Pb       8.35416135       6.33070481       4.52166912
Pb      12.53124182       6.33070481       0.00000038
I        8.67477291       3.16535241       4.62657721
I       16.38771091       9.49605722       4.41676128
I       12.21063039       9.49605722       0.10490874
I       12.85185352       3.16535241       8.93842975
I       10.99449439      12.37871483       6.26851413
I       14.06798927       0.28269500       2.77482437
I        9.89090854       0.28269502       1.74684567
I       15.17157562      12.37871481       7.29649283
I       14.06798927       6.04800981       2.77482437
I       10.99449439       6.61339945       6.26851413
I       15.17157562       6.61339946       7.29649283
I        9.89090854       6.04800980       1.74684567
C        8.62804938       3.16535241      17.51923032
C       16.43443511       9.49605722       9.61078364
C       12.25735464       9.49605722      12.99756157
C       12.80512982       3.16535241      14.13245239
N       16.36463318       3.16535241       9.82147247
N        8.69785125       9.49605722      17.30854149
N       12.87493222       9.49605722      14.34314187
N       12.18755224       3.16535241      12.78687209
H       16.66957619       4.01009043      10.35703627
H        8.39290842       8.65131919      16.77297789
H       12.56998882       8.65131917      14.87870447
H       12.49249540       4.01009045      12.25130923
H        8.39290842      10.34079525      16.77297789
H       16.66957619       2.32061438      10.35703627
H       12.49249540       2.32061436      12.25130923
H       12.56998882      10.34079527      14.87870447
H       15.32017891       3.16535241       9.75506379
H        9.74230567       9.49605722      17.37495031
H       13.91938589       9.49605722      14.27673264
H       11.14309858       3.16535241      12.85328133
H       16.65777936       4.06732483      16.98040901
H        8.40470533       8.59408479      10.14960468
H       12.58178579       8.59408466      12.45874023
H       12.48069842       4.06732497      14.67127400
H        8.40470533      10.39802965      10.14960468
H       16.65777936       2.26337998      16.98040901
H       12.48069842       2.26337984      14.67127400
H       12.58178579      10.39802979      12.45874023
H        9.72244082       3.16535241      17.63124952
H       15.34004351       9.49605722       9.49876464
H       11.16296288       9.49605722      13.10958069
H       13.89952158       3.16535241      14.02043300
Pb       8.35416163       0.00000000      13.56500685
Pb      12.53124209       0.00000000       9.04333811
Pb       8.35416163       6.33070481      13.56500685
Pb      12.53124209       6.33070481       9.04333811
I        8.67477318       3.16535241      13.66991494
I       16.38771119       9.49605722      13.46009902
I       12.21063066       9.49605722       9.14824648
I       12.85185380       3.16535241      17.98176748
I       10.99449466      12.37871483      15.31185186
I       14.06798955       0.28269500      11.81816210
I        9.89090882       0.28269502      10.79018340
I       15.17157590      12.37871481      16.33983056
I       14.06798955       6.04800981      11.81816210
I       10.99449466       6.61339945      15.31185186
I       15.17157590       6.61339946      16.33983056
I        9.89090882       6.04800980      10.79018340
C        8.62804966       3.16535241      26.56256806
C       16.43443538       9.49605722      18.65412137
C       12.25735492       9.49605722      22.04089930
C       12.80513010       3.16535241      23.17579012
N       16.36463345       3.16535241      18.86481020
N        8.69785153       9.49605722      26.35187923
N       12.87493250       9.49605722      23.38647960
N       12.18755251       3.16535241      21.83020982
H       16.66957647       4.01009043      19.40037401
H        8.39290870       8.65131919      25.81631562
H       12.56998910       8.65131917      23.92204221
H       12.49249567       4.01009045      21.29464696
H        8.39290870      10.34079525      25.81631562
H       16.66957647       2.32061438      19.40037401
H       12.49249567       2.32061436      21.29464696
H       12.56998910      10.34079527      23.92204221
H       15.32017919       3.16535241      18.79840152
H        9.74230595       9.49605722      26.41828804
H       13.91938616       9.49605722      23.32007037
H       11.14309885       3.16535241      21.89661906
H       16.65777963       4.06732483      26.02374674
H        8.40470561       8.59408479      19.19294241
H       12.58178606       8.59408466      21.50207797
H       12.48069870       4.06732497      23.71461173
H        8.40470561      10.39802965      19.19294241
H       16.65777963       2.26337998      26.02374674
H       12.48069870       2.26337984      23.71461173
H       12.58178606      10.39802979      21.50207797
H        9.72244110       3.16535241      26.67458725
H       15.34004379       9.49605722      18.54210237
H       11.16296316       9.49605722      22.15291842
H       13.89952185       3.16535241      23.06377073
Pb       8.35416190       0.00000000      22.60834458
Pb      12.53124237       0.00000000      18.08667585
Pb       8.35416190       6.33070481      22.60834458
Pb      12.53124237       6.33070481      18.08667585
I        8.67477346       3.16535241      22.71325268
I       16.38771146       9.49605722      22.50343675
I       12.21063094       9.49605722      18.19158421
I       12.85185407       3.16535241      27.02510522
I       10.99449494      12.37871483      24.35518959
I       14.06798982       0.28269500      20.86149983
I        9.89090909       0.28269502      19.83352113
I       15.17157617      12.37871481      25.38316830
I       14.06798982       6.04800981      20.86149983
I       10.99449494       6.61339945      24.35518959
I       15.17157617       6.61339946      25.38316830
I        9.89090909       6.04800980      19.83352113
C        8.62804910      15.82676203       8.47589259
C       16.43443483      22.15746685       0.56744590
C       12.25735436      22.15746685       3.95422384
C       12.80512955      15.82676203       5.08911466
N       16.36463290      15.82676203       0.77813473
N        8.69785097      22.15746685       8.26520376
N       12.87493195      22.15746685       5.29980414
N       12.18755196      15.82676203       3.74353436
H       16.66957591      16.67150006       1.31369854
H        8.39290815      21.31272882       7.72964015
H       12.56998855      21.31272880       5.83536674
H       12.49249512      16.67150008       3.20797149
H        8.39290815      23.00220487       7.72964015
H       16.66957591      14.98202401       1.31369854
H       12.49249512      14.98202399       3.20797149
H       12.56998855      23.00220490       5.83536674
H       15.32017864      15.82676203       0.71172606
H        9.74230540      22.15746685       8.33161258
H       13.91938561      22.15746685       5.23339490
H       11.14309830      15.82676203       3.80994359
H       16.65777908      16.72873446       7.93707128
H        8.40470505      21.25549442       1.10626695
H       12.58178551      21.25549428       3.41540250
H       12.48069815      16.72873460       5.62793627
H        8.40470505      23.05943927       1.10626695
H       16.65777908      14.92478961       7.93707128
H       12.48069815      14.92478947       5.62793627
H       12.58178551      23.05943941       3.41540250
H        9.72244054      15.82676203       8.58791179
H       15.34004324      22.15746685       0.45542691
H       11.16296261      22.15746685       4.06624296
H       13.89952130      15.82676203       4.97709527
Pb       8.35416135      12.66140963       4.52166912
Pb      12.53124182      12.66140963       0.00000038
Pb       8.35416135      18.99211444       4.52166912
Pb      12.53124182      18.99211444       0.00000038
I        8.67477291      15.82676203       4.62657721
I       16.38771091      22.15746685       4.41676128
I       12.21063039      22.15746685       0.10490874
I       12.85185352      15.82676203       8.93842975
I       10.99449439      25.04012446       6.26851413
I       14.06798927      12.94410463       2.77482437
I        9.89090854      12.94410464       1.74684567
I       15.17157562      25.04012444       7.29649283
I       14.06798927      18.70941944       2.77482437
I       10.99449439      19.27480907       6.26851413
I       15.17157562      19.27480909       7.29649283
I        9.89090854      18.70941942       1.74684567
C        8.62804938      15.82676203      17.51923032
C       16.43443511      22.15746685       9.61078364
C       12.25735464      22.15746685      12.99756157
C       12.80512982      15.82676203      14.13245239
N       16.36463318      15.82676203       9.82147247
N        8.69785125      22.15746685      17.30854149
N       12.87493222      22.15746685      14.34314187
N       12.18755224      15.82676203      12.78687209
H       16.66957619      16.67150006      10.35703627
H        8.39290842      21.31272882      16.77297789
H       12.56998882      21.31272880      14.87870447
H       12.49249540      16.67150008      12.25130923
H        8.39290842      23.00220487      16.77297789
H       16.66957619      14.98202401      10.35703627
H       12.49249540      14.98202399      12.25130923
H       12.56998882      23.00220490      14.87870447
H       15.32017891      15.82676203       9.75506379
H        9.74230567      22.15746685      17.37495031
H       13.91938589      22.15746685      14.27673264
H       11.14309858      15.82676203      12.85328133
H       16.65777936      16.72873446      16.98040901
H        8.40470533      21.25549442      10.14960468
H       12.58178579      21.25549428      12.45874023
H       12.48069842      16.72873460      14.67127400
H        8.40470533      23.05943927      10.14960468
H       16.65777936      14.92478961      16.98040901
H       12.48069842      14.92478947      14.67127400
H       12.58178579      23.05943941      12.45874023
H        9.72244082      15.82676203      17.63124952
H       15.34004351      22.15746685       9.49876464
H       11.16296288      22.15746685      13.10958069
H       13.89952158      15.82676203      14.02043300
Pb       8.35416163      12.66140963      13.56500685
Pb      12.53124209      12.66140963       9.04333811
Pb       8.35416163      18.99211444      13.56500685
Pb      12.53124209      18.99211444       9.04333811
I        8.67477318      15.82676203      13.66991494
I       16.38771119      22.15746685      13.46009902
I       12.21063066      22.15746685       9.14824648
I       12.85185380      15.82676203      17.98176748
I       10.99449466      25.04012446      15.31185186
I       14.06798955      12.94410463      11.81816210
I        9.89090882      12.94410464      10.79018340
I       15.17157590      25.04012444      16.33983056
I       14.06798955      18.70941944      11.81816210
I       10.99449466      19.27480907      15.31185186
I       15.17157590      19.27480909      16.33983056
I        9.89090882      18.70941942      10.79018340
C        8.62804966      15.82676203      26.56256806
C       16.43443538      22.15746685      18.65412137
C       12.25735492      22.15746685      22.04089930
C       12.80513010      15.82676203      23.17579012
N       16.36463345      15.82676203      18.86481020
N        8.69785153      22.15746685      26.35187923
N       12.87493250      22.15746685      23.38647960
N       12.18755251      15.82676203      21.83020982
H       16.66957647      16.67150006      19.40037401
H        8.39290870      21.31272882      25.81631562
H       12.56998910      21.31272880      23.92204221
H       12.49249567      16.67150008      21.29464696
H        8.39290870      23.00220487      25.81631562
H       16.66957647      14.98202401      19.40037401
H       12.49249567      14.98202399      21.29464696
H       12.56998910      23.00220490      23.92204221
H       15.32017919      15.82676203      18.79840152
H        9.74230595      22.15746685      26.41828804
H       13.91938616      22.15746685      23.32007037
H       11.14309885      15.82676203      21.89661906
H       16.65777963      16.72873446      26.02374674
H        8.40470561      21.25549442      19.19294241
H       12.58178606      21.25549428      21.50207797
H       12.48069870      16.72873460      23.71461173
H        8.40470561      23.05943927      19.19294241
H       16.65777963      14.92478961      26.02374674
H       12.48069870      14.92478947      23.71461173
H       12.58178606      23.05943941      21.50207797
H        9.72244110      15.82676203      26.67458725
H       15.34004379      22.15746685      18.54210237
H       11.16296316      22.15746685      22.15291842
H       13.89952185      15.82676203      23.06377073
Pb       8.35416190      12.66140963      22.60834458
Pb      12.53124237      12.66140963      18.08667585
Pb       8.35416190      18.99211444      22.60834458
Pb      12.53124237      18.99211444      18.08667585
I        8.67477346      15.82676203      22.71325268
I       16.38771146      22.15746685      22.50343675
I       12.21063094      22.15746685      18.19158421
I       12.85185407      15.82676203      27.02510522
I       10.99449494      25.04012446      24.35518959
I       14.06798982      12.94410463      20.86149983
I        9.89090909      12.94410464      19.83352113
I       15.17157617      25.04012444      25.38316830
I       14.06798982      18.70941944      20.86149983
I       10.99449494      19.27480907      24.35518959
I       15.17157617      19.27480909      25.38316830
I        9.89090909      18.70941942      19.83352113
C       16.98221031       3.16535241       8.47589285
C       24.78859604       9.49605722       0.56744616
C       20.61151557       9.49605722       3.95422410
C       21.15929076       3.16535241       5.08911491
N       24.71879411       3.16535241       0.77813499
N       17.05201218       9.49605722       8.26520402
N       21.22909316       9.49605722       5.29980439
N       20.54171317       3.16535241       3.74353461
H       25.02373712       4.01009043       1.31369880
H       16.74706936       8.65131919       7.72964041
H       20.92414976       8.65131917       5.83536700
H       20.84665633       4.01009045       3.20797175
H       16.74706936      10.34079525       7.72964041
H       25.02373712       2.32061438       1.31369880
H       20.84665633       2.32061436       3.20797175
H       20.92414976      10.34079527       5.83536700
H       23.67433985       3.16535241       0.71172631
H       18.09646661       9.49605722       8.33161283
H       22.27354682       9.49605722       5.23339516
H       19.49725951       3.16535241       3.80994385
H       25.01194029       4.06732483       7.93707153
H       16.75886627       8.59408479       1.10626720
H       20.93594672       8.59408466       3.41540276
H       20.83485936       4.06732497       5.62793652
H       16.75886627      10.39802965       1.10626720
H       25.01194029       2.26337998       7.93707153
H       20.83485936       2.26337984       5.62793652
H       20.93594672      10.39802979       3.41540276
H       18.07660176       3.16535241       8.58791204
H       23.69420445       9.49605722       0.45542717
H       19.51712382       9.49605722       4.06624321
H       22.25368251       3.16535241       4.97709552
Pb      16.70832256       0.00000000       4.52166938
Pb      20.88540303       0.00000000       0.00000064
Pb      16.70832256       6.33070481       4.52166938
Pb      20.88540303       6.33070481       0.00000064
I       17.02893412       3.16535241       4.62657747
I       24.74187212       9.49605722       4.41676154
I       20.56479160       9.49605722       0.10490900
I       21.20601473       3.16535241       8.93843001
I       19.34865560      12.37871483       6.26851438
I       22.42215048       0.28269500       2.77482462
I       18.24506975       0.28269502       1.74684592
I       23.52573683      12.37871481       7.29649309
I       22.42215048       6.04800981       2.77482462
I       19.34865560       6.61339945       6.26851438
I       23.52573683       6.61339946       7.29649309
I       18.24506975       6.04800980       1.74684592
C       16.98221059       3.16535241      17.51923058
C       24.78859632       9.49605722       9.61078389
C       20.61151585       9.49605722      12.99756183
C       21.15929103       3.16535241      14.13245264
N       24.71879439       3.16535241       9.82147272
N       17.05201246       9.49605722      17.30854175
N       21.22909343       9.49605722      14.34314213
N       20.54171345       3.16535241      12.78687234
H       25.02373740       4.01009043      10.35703653
H       16.74706963       8.65131919      16.77297814
H       20.92415003       8.65131917      14.87870473
H       20.84665661       4.01009045      12.25130948
H       16.74706963      10.34079525      16.77297814
H       25.02373740       2.32061438      10.35703653
H       20.84665661       2.32061436      12.25130948
H       20.92415003      10.34079527      14.87870473
H       23.67434013       3.16535241       9.75506404
H       18.09646688       9.49605722      17.37495056
H       22.27354710       9.49605722      14.27673289
H       19.49725979       3.16535241      12.85328158
H       25.01194057       4.06732483      16.98040926
H       16.75886654       8.59408479      10.14960494
H       20.93594700       8.59408466      12.45874049
H       20.83485963       4.06732497      14.67127425
H       16.75886654      10.39802965      10.14960494
H       25.01194057       2.26337998      16.98040926
H       20.83485963       2.26337984      14.67127425
H       20.93594700      10.39802979      12.45874049
H       18.07660203       3.16535241      17.63124977
H       23.69420473       9.49605722       9.49876490
H       19.51712409       9.49605722      13.10958094
H       22.25368279       3.16535241      14.02043326
Pb      16.70832284       0.00000000      13.56500711
Pb      20.88540330       0.00000000       9.04333837
Pb      16.70832284       6.33070481      13.56500711
Pb      20.88540330       6.33070481       9.04333837
I       17.02893439       3.16535241      13.66991520
I       24.74187240       9.49605722      13.46009927
I       20.56479187       9.49605722       9.14824673
I       21.20601501       3.16535241      17.98176774
I       19.34865587      12.37871483      15.31185211
I       22.42215076       0.28269500      11.81816236
I       18.24507003       0.28269502      10.79018365
I       23.52573711      12.37871481      16.33983082
I       22.42215076       6.04800981      11.81816236
I       19.34865587       6.61339945      15.31185211
I       23.52573711       6.61339946      16.33983082
I       18.24507003       6.04800980      10.79018365
C       16.98221087       3.16535241      26.56256831
C       24.78859659       9.49605722      18.65412162
C       20.61151613       9.49605722      22.04089956
C       21.15929131       3.16535241      23.17579037
N       24.71879466       3.16535241      18.86481045
N       17.05201274       9.49605722      26.35187948
N       21.22909371       9.49605722      23.38647986
N       20.54171373       3.16535241      21.83021008
H       25.02373768       4.01009043      19.40037426
H       16.74706991       8.65131919      25.81631587
H       20.92415031       8.65131917      23.92204246
H       20.84665688       4.01009045      21.29464721
H       16.74706991      10.34079525      25.81631587
H       25.02373768       2.32061438      19.40037426
H       20.84665688       2.32061436      21.29464721
H       20.92415031      10.34079527      23.92204246
H       23.67434040       3.16535241      18.79840178
H       18.09646716       9.49605722      26.41828829
H       22.27354737       9.49605722      23.32007062
H       19.49726006       3.16535241      21.89661931
H       25.01194084       4.06732483      26.02374699
H       16.75886682       8.59408479      19.19294267
H       20.93594727       8.59408466      21.50207822
H       20.83485991       4.06732497      23.71461199
H       16.75886682      10.39802965      19.19294267
H       25.01194084       2.26337998      26.02374699
H       20.83485991       2.26337984      23.71461199
H       20.93594727      10.39802979      21.50207822
H       18.07660231       3.16535241      26.67458750
H       23.69420500       9.49605722      18.54210263
H       19.51712437       9.49605722      22.15291867
H       22.25368307       3.16535241      23.06377099
Pb      16.70832311       0.00000000      22.60834484
Pb      20.88540358       0.00000000      18.08667610
Pb      16.70832311       6.33070481      22.60834484
Pb      20.88540358       6.33070481      18.08667610
I       17.02893467       3.16535241      22.71325293
I       24.74187267       9.49605722      22.50343700
I       20.56479215       9.49605722      18.19158446
I       21.20601528       3.16535241      27.02510547
I       19.34865615      12.37871483      24.35518985
I       22.42215103       0.28269500      20.86150009
I       18.24507030       0.28269502      19.83352138
I       23.52573738      12.37871481      25.38316855
I       22.42215103       6.04800981      20.86150009
I       19.34865615       6.61339945      24.35518985
I       23.52573738       6.61339946      25.38316855
I       18.24507030       6.04800980      19.83352138
C       16.98221031      15.82676203       8.47589285
C       24.78859604      22.15746685       0.56744616
C       20.61151557      22.15746685       3.95422410
C       21.15929076      15.82676203       5.08911491
N       24.71879411      15.82676203       0.77813499
N       17.05201218      22.15746685       8.26520402
N       21.22909316      22.15746685       5.29980439
N       20.54171317      15.82676203       3.74353461
H       25.02373712      16.67150006       1.31369880
H       16.74706936      21.31272882       7.72964041
H       20.92414976      21.31272880       5.83536700
H       20.84665633      16.67150008       3.20797175
H       16.74706936      23.00220487       7.72964041
H       25.02373712      14.98202401       1.31369880
H       20.84665633      14.98202399       3.20797175
H       20.92414976      23.00220490       5.83536700
H       23.67433985      15.82676203       0.71172631
H       18.09646661      22.15746685       8.33161283
H       22.27354682      22.15746685       5.23339516
H       19.49725951      15.82676203       3.80994385
H       25.01194029      16.72873446       7.93707153
H       16.75886627      21.25549442       1.10626720
H       20.93594672      21.25549428       3.41540276
H       20.83485936      16.72873460       5.62793652
H       16.75886627      23.05943927       1.10626720
H       25.01194029      14.92478961       7.93707153
H       20.83485936      14.92478947       5.62793652
H       20.93594672      23.05943941       3.41540276
H       18.07660176      15.82676203       8.58791204
H       23.69420445      22.15746685       0.45542717
H       19.51712382      22.15746685       4.06624321
H       22.25368251      15.82676203       4.97709552
Pb      16.70832256      12.66140963       4.52166938
Pb      20.88540303      12.66140963       0.00000064
Pb      16.70832256      18.99211444       4.52166938
Pb      20.88540303      18.99211444       0.00000064
I       17.02893412      15.82676203       4.62657747
I       24.74187212      22.15746685       4.41676154
I       20.56479160      22.15746685       0.10490900
I       21.20601473      15.82676203       8.93843001
I       19.34865560      25.04012446       6.26851438
I       22.42215048      12.94410463       2.77482462
I       18.24506975      12.94410464       1.74684592
I       23.52573683      25.04012444       7.29649309
I       22.42215048      18.70941944       2.77482462
I       19.34865560      19.27480907       6.26851438
I       23.52573683      19.27480909       7.29649309
I       18.24506975      18.70941942       1.74684592
C       16.98221059      15.82676203      17.51923058
C       24.78859632      22.15746685       9.61078389
C       20.61151585      22.15746685      12.99756183
C       21.15929103      15.82676203      14.13245264
N       24.71879439      15.82676203       9.82147272
N       17.05201246      22.15746685      17.30854175
N       21.22909343      22.15746685      14.34314213
N       20.54171345      15.82676203      12.78687234
H       25.02373740      16.67150006      10.35703653
H       16.74706963      21.31272882      16.77297814
H       20.92415003      21.31272880      14.87870473
H       20.84665661      16.67150008      12.25130948
H       16.74706963      23.00220487      16.77297814
H       25.02373740      14.98202401      10.35703653
H       20.84665661      14.98202399      12.25130948
H       20.92415003      23.00220490      14.87870473
H       23.67434013      15.82676203       9.75506404
H       18.09646688      22.15746685      17.37495056
H       22.27354710      22.15746685      14.27673289
H       19.49725979      15.82676203      12.85328158
H       25.01194057      16.72873446      16.98040926
H       16.75886654      21.25549442      10.14960494
H       20.93594700      21.25549428      12.45874049
H       20.83485963      16.72873460      14.67127425
H       16.75886654      23.05943927      10.14960494
H       25.01194057      14.92478961      16.98040926
H       20.83485963      14.92478947      14.67127425
H       20.93594700      23.05943941      12.45874049
H       18.07660203      15.82676203      17.63124977
H       23.69420473      22.15746685       9.49876490
H       19.51712409      22.15746685      13.10958094
H       22.25368279      15.82676203      14.02043326
Pb      16.70832284      12.66140963      13.56500711
Pb      20.88540330      12.66140963       9.04333837
Pb      16.70832284      18.99211444      13.56500711
Pb      20.88540330      18.99211444       9.04333837
I       17.02893439      15.82676203      13.66991520
I       24.74187240      22.15746685      13.46009927
I       20.56479187      22.15746685       9.14824673
I       21.20601501      15.82676203      17.98176774
I       19.34865587      25.04012446      15.31185211
I       22.42215076      12.94410463      11.81816236
I       18.24507003      12.94410464      10.79018365
I       23.52573711      25.04012444      16.33983082
I       22.42215076      18.70941944      11.81816236
I       19.34865587      19.27480907      15.31185211
I       23.52573711      19.27480909      16.33983082
I       18.24507003      18.70941942      10.79018365
C       16.98221087      15.82676203      26.56256831
C       24.78859659      22.15746685      18.65412162
C       20.61151613      22.15746685      22.04089956
C       21.15929131      15.82676203      23.17579037
N       24.71879466      15.82676203      18.86481045
N       17.05201274      22.15746685      26.35187948
N       21.22909371      22.15746685      23.38647986
N       20.54171373      15.82676203      21.83021008
H       25.02373768      16.67150006      19.40037426
H       16.74706991      21.31272882      25.81631587
H       20.92415031      21.31272880      23.92204246
H       20.84665688      16.67150008      21.29464721
H       16.74706991      23.00220487      25.81631587
H       25.02373768      14.98202401      19.40037426
H       20.84665688      14.98202399      21.29464721
H       20.92415031      23.00220490      23.92204246
H       23.67434040      15.82676203      18.79840178
H       18.09646716      22.15746685      26.41828829
H       22.27354737      22.15746685      23.32007062
H       19.49726006      15.82676203      21.89661931
H       25.01194084      16.72873446      26.02374699
H       16.75886682      21.25549442      19.19294267
H       20.93594727      21.25549428      21.50207822
H       20.83485991      16.72873460      23.71461199
H       16.75886682      23.05943927      19.19294267
H       25.01194084      14.92478961      26.02374699
H       20.83485991      14.92478947      23.71461199
H       20.93594727      23.05943941      21.50207822
H       18.07660231      15.82676203      26.67458750
H       23.69420500      22.15746685      18.54210263
H       19.51712437      22.15746685      22.15291867
H       22.25368307      15.82676203      23.06377099
Pb      16.70832311      12.66140963      22.60834484
Pb      20.88540358      12.66140963      18.08667610
Pb      16.70832311      18.99211444      22.60834484
Pb      20.88540358      18.99211444      18.08667610
I       17.02893467      15.82676203      22.71325293
I       24.74187267      22.15746685      22.50343700
I       20.56479215      22.15746685      18.19158446
I       21.20601528      15.82676203      27.02510547
I       19.34865615      25.04012446      24.35518985
I       22.42215103      12.94410463      20.86150009
I       18.24507030      12.94410464      19.83352138
I       23.52573738      25.04012444      25.38316855
I       22.42215103      18.70941944      20.86150009
I       19.34865615      19.27480907      24.35518985
I       23.52573738      19.27480909      25.38316855
I       18.24507030      18.70941942      19.83352138
