864
Lattice="26.08548856716594 0.009599525487243299 0.1220588714817165 0.0103039021786842 26.145727994405433 0.0879960463315431 0.1053231490756544 0.0810128041242702 25.669143764488087" Properties=species:S:1:pos:R:3 pbc="T T T"
C        6.78658851       2.17675751       3.24776389
C        2.46202163       6.93962261       3.23923382
C        6.94883945       2.48911418       9.65288383
C        2.20266188       6.82412680       9.66278627
N        5.89458534       3.12446748       2.54492711
N        1.56597843       5.97056494       2.57202545
N        5.99241341       1.57750584       8.98897641
N        3.14070214       5.91981258       8.96287883
H        3.50171721       6.71504690       2.96005458
H        2.33724456       6.85198521       4.32768511
H        2.19882286       7.95373633       2.90553266
H        1.78193011       4.98381504       2.84674273
H        1.66181427       6.02463041       1.53715479
H        0.55888595       6.15031348       2.79647656
H        5.97704725       3.01754995       1.51301927
H        6.12558308       4.11974815       2.77451776
H        4.88826230       2.96399652       2.78901520
H        7.82581223       2.37689327       2.94911079
H        6.51087420       1.15077418       2.96453106
H        6.67184964       2.31289048       4.33229453
H        6.15907259       0.57729657       9.25064183
H        6.07868828       1.63486274       7.95348576
H        4.99983936       1.80771114       9.22961533
H        7.97002513       2.21032314       9.35533253
H        6.83215393       2.39922254      10.74205190
H        6.73811974       3.52021555       9.33403364
H        4.13886007       6.15511514       9.17499581
H        3.01780706       5.98171834       7.93119914
H        2.98447754       4.91789257       9.22641931
H        2.39866289       7.85767847       9.34244083
H        2.35342845       6.72856189      10.74725218
H        1.17280616       6.54350555       9.39907962
Pb       2.30752579       2.36553680      12.71004908
Pb       2.35449671       2.28920885       6.29271168
Pb       6.81232938       6.66394027       6.33784976
Pb       6.66984562       6.83946452      12.75336025
I        3.99397070       5.09991014      12.80465973
I        0.70281868       8.39923608      12.83504319
I        8.38037977       4.14678412      12.86965320
I        5.09846143       0.85775270      12.72826402
I        0.84245010       5.07656550       6.31038987
I        4.12333660       8.37642136       6.46014198
I        5.08001379       3.98610223       6.38869775
I        8.36634022       0.67985217       6.41630761
I        2.39574327       2.47277145       3.09833926
I        2.49815193       2.41780565       9.51549988
I        6.61208122       6.76767693       9.57284161
I        6.73439184       6.59972878       3.15585346
C        6.83925008       2.21726391      16.08233577
C        2.51468321       6.98012901      16.07380571
C        7.00150103       2.52962058      22.48745571
C        2.25532346       6.86463320      22.49735815
N        5.94724692       3.16497388      15.37949899
N        1.61864001       6.01107134      15.40659733
N        6.04507498       1.61801224      21.82354829
N        3.19336371       5.96031899      21.79745072
H        3.55437878       6.75555330      15.79462646
H        2.38990614       6.89249161      17.16225699
H        2.25148444       7.99424273      15.74010454
H        1.83459169       5.02432144      15.68131461
H        1.71447584       6.06513681      14.37172668
H        0.61154753       6.19081989      15.63104844
H        6.02970883       3.05805636      14.34759115
H        6.17824465       4.16025455      15.60908964
H        4.94092387       3.00450292      15.62358709
H        7.87847381       2.41739968      15.78368267
H        6.56353577       1.19128059      15.79910294
H        6.72451121       2.35339688      17.16686642
H        6.21173417       0.61780297      22.08521371
H        6.13134986       1.67536914      20.78805764
H        5.05250094       1.84821754      22.06418721
H        8.02268671       2.25082954      22.18990441
H        6.88481551       2.43972894      23.57662378
H        6.79078131       3.56072195      22.16860552
H        4.19152165       6.19562154      22.00956769
H        3.07046864       6.02222474      20.76577102
H        3.03713912       4.95839897      22.06099120
H        2.45132446       7.89818487      22.17701271
H        2.40609003       6.76906829      23.58182406
H        1.22546774       6.58401196      22.23365150
Pb       2.36018736       2.40604320      25.54462097
Pb       2.40715829       2.32971525      19.12728356
Pb       6.86499095       6.70444668      19.17242165
Pb       6.72250720       6.87997092      25.58793213
I        4.04663228       5.14041654      25.63923161
I        0.75548026       8.43974248      25.66961507
I        8.43304135       4.18729053      25.70422508
I        5.15112300       0.89825910      25.56283590
I        0.89511167       5.11707190      19.14496175
I        4.17599817       8.41692776      19.29471386
I        5.13267537       4.02660863      19.22326963
I        8.41900179       0.72035857      19.25087949
I        2.44840484       2.51327785      15.93291115
I        2.55081350       2.45831206      22.35007176
I        6.66474279       6.80818333      22.40741349
I        6.78705342       6.64023519      15.99042534
C        6.79002314      10.89200018       3.27709591
C        2.46545626      15.65486528       3.26856584
C        6.95227408      11.20435684       9.68221584
C        2.20609652      15.53936946       9.69211829
N        5.89801997      11.83971014       2.57425912
N        1.56941307      14.68580760       2.60135747
N        5.99584804      10.29274851       9.01830842
N        3.14413677      14.63505525       8.99221085
H        3.50515184      15.43028957       2.98938660
H        2.34067920      15.56722787       4.35701712
H        2.20225749      16.66897900       2.93486468
H        1.78536475      13.69905771       2.87607475
H        1.66524890      14.73987307       1.56648681
H        0.56232059      14.86555615       2.82580857
H        5.98048189      11.73279262       1.54235128
H        6.12901771      12.83499081       2.80384977
H        4.89169693      11.67923919       2.81834722
H        7.82924687      11.09213594       2.97844281
H        6.51430883       9.86601685       2.99386307
H        6.67528427      11.02813315       4.36162655
H        6.16250723       9.29253923       9.27997385
H        6.08212292      10.35010540       7.98281778
H        5.00327400      10.52295380       9.25894734
H        7.97345977      10.92556581       9.38466454
H        6.83558857      11.11446520      10.77138392
H        6.74155437      12.23545821       9.36336565
H        4.14229471      14.87035780       9.20432782
H        3.02124170      14.69696101       7.96053116
H        2.98791218      13.63313523       9.25575133
H        2.40209752      16.57292113       9.37177285
H        2.35686309      15.44380455      10.77658419
H        1.17624080      15.25874822       9.42841164
Pb       2.31096042      11.08077947      12.73938110
Pb       2.35793134      11.00445151       6.32204370
Pb       6.81576401      15.37918294       6.36718178
Pb       6.67328026      15.55470719      12.78269227
I        3.99740534      13.81515280      12.83399174
I        0.70625332      17.11447874      12.86437521
I        8.38381441      12.86202679      12.89898522
I        5.10189606       9.57299536      12.75759603
I        0.84588473      13.79180817       6.33972189
I        4.12677123      17.09166402       6.48947400
I        5.08344843      12.70134490       6.41802976
I        8.36977485       9.39509484       6.44563963
I        2.39917790      11.18801411       3.12767128
I        2.50158656      11.13304832       9.54483189
I        6.61551585      15.48291959       9.60217362
I        6.73782648      15.31497145       3.18518548
C        6.84268472      10.93250658      16.11166779
C        2.51811784      15.69537168      16.10313772
C        7.00493566      11.24486325      22.51678772
C        2.25875809      15.57987586      22.52669017
N        5.95068155      11.88021654      15.40883101
N        1.62207464      14.72631401      15.43592935
N        6.04850961      10.33325491      21.85288031
N        3.19679834      14.67556165      21.82678273
H        3.55781341      15.47079597      15.82395848
H        2.39334077      15.60773428      17.19158901
H        2.25491907      16.70948540      15.76943656
H        1.83802632      13.73956411      15.71064663
H        1.71791048      14.78037948      14.40105869
H        0.61498216      14.90606255      15.66038045
H        6.03314346      11.77329902      14.37692317
H        6.18167929      12.87549721      15.63842166
H        4.94435850      11.71974559      15.65291910
H        7.88190844      11.13264234      15.81301469
H        6.56697041       9.90652325      15.82843496
H        6.72794585      11.06863955      17.19619843
H        6.21516880       9.33304563      22.11454573
H        6.13478449      10.39061180      20.81738966
H        5.05593557      10.56346020      22.09351922
H        8.02612134      10.96607221      22.21923643
H        6.88825014      11.15497160      23.60595580
H        6.79421595      12.27596461      22.19793753
H        4.19495628      14.91086421      22.03889971
H        3.07390327      14.73746741      20.79510304
H        3.04057375      13.67364163      22.09032321
H        2.45475910      16.61342753      22.20634473
H        2.40952466      15.48431095      23.61115608
H        1.22890237      15.29925462      22.26298352
Pb       2.36362200      11.12128587      25.57395298
Pb       2.41059292      11.04495791      19.15661558
Pb       6.86842558      15.41968934      19.20175366
Pb       6.72594183      15.59521359      25.61726415
I        4.05006691      13.85565921      25.66856363
I        0.75891489      17.15498514      25.69894709
I        8.43647598      12.90253319      25.73355710
I        5.15455764       9.61350176      25.59216792
I        0.89854631      13.83231457      19.17429377
I        4.17943280      17.13217042      19.32404588
I        5.13611000      12.74185130      19.25260165
I        8.42243642       9.43560124      19.28021151
I        2.45183948      11.22852051      15.96224316
I        2.55424814      11.17355472      22.37940377
I        6.66817743      15.52342599      22.43674550
I        6.79048805      15.35547785      16.01975736
C        6.79345778      19.60724284       3.30642792
C        2.46889090      24.37010794       3.29789786
C        6.95570872      19.91959951       9.71154786
C        2.20953115      24.25461213       9.72145030
N        5.90145461      20.55495281       2.60359114
N        1.57284770      23.40105027       2.63068948
N        5.99928267      19.00799117       9.04764044
N        3.14757140      23.35029791       9.02154286
H        3.50858647      24.14553223       3.01871861
H        2.34411383      24.28247054       4.38634914
H        2.20569213      25.38422166       2.96419669
H        1.78879938      22.41430037       2.90540676
H        1.66868354      23.45511574       1.59581882
H        0.56575522      23.58079881       2.85514059
H        5.98391652      20.44803528       1.57168330
H        6.13245235      21.55023347       2.83318179
H        4.89513156      20.39448185       2.84767923
H        7.83268150      19.80737860       3.00777482
H        6.51774347      18.58125951       3.02319509
H        6.67871890      19.74337581       4.39095856
H        6.16594186      18.00778190       9.30930586
H        6.08555755      19.06534807       8.01214979
H        5.00670863      19.23819647       9.28827936
H        7.97689440      19.64080847       9.41399656
H        6.83902320      19.82970786      10.80071593
H        6.74498901      20.95070088       9.39269767
H        4.14572934      23.58560047       9.23365984
H        3.02467633      23.41220367       7.98986317
H        2.99134681      22.34837790       9.28508334
H        2.40553216      25.28816380       9.40110486
H        2.36029772      24.15904722      10.80591621
H        1.17967543      23.97399088       9.45774365
Pb       2.31439506      19.79602213      12.76871312
Pb       2.36136598      19.71969418       6.35137571
Pb       6.81919864      24.09442560       6.39651379
Pb       6.67671489      24.26994985      12.81202428
I        4.00083997      22.53039547      12.86332376
I        0.70968795      25.82972141      12.89370722
I        8.38724904      21.57726945      12.92831723
I        5.10533070      18.28823802      12.78692805
I        0.84931937      22.50705083       6.36905390
I        4.13020586      25.80690669       6.51880601
I        5.08688306      21.41658756       6.44736178
I        8.37320948      18.11033750       6.47497164
I        2.40261254      19.90325678       3.15700329
I        2.50502120      19.84829098       9.57416391
I        6.61895048      24.19816226       9.63150564
I        6.74126111      24.03021411       3.21451749
C        6.84611935      19.64774924      16.14099980
C        2.52155247      24.41061434      16.13246974
C        7.00837029      19.96010591      22.54611974
C        2.26219273      24.29511853      22.55602219
N        5.95411618      20.59545921      15.43816302
N        1.62550928      23.44155667      15.46526137
N        6.05194425      19.04849757      21.88221232
N        3.20023298      23.39080432      21.85611475
H        3.56124805      24.18603863      15.85329049
H        2.39677541      24.32297694      17.22092102
H        2.25835370      25.42472806      15.79876858
H        1.84146095      22.45480677      15.73997864
H        1.72134511      23.49562214      14.43039071
H        0.61841680      23.62130522      15.68971247
H        6.03657810      20.48854169      14.40625518
H        6.18511392      21.59073988      15.66775367
H        4.94779314      20.43498825      15.68225112
H        7.88534308      19.84788500      15.84234670
H        6.57040504      18.62176592      15.85776697
H        6.73138048      19.78388221      17.22553045
H        6.21860344      18.04828830      22.14387774
H        6.13821913      19.10585447      20.84672167
H        5.05937021      19.27870287      22.12285124
H        8.02955598      19.68131487      22.24856844
H        6.89168477      19.87021427      23.63528781
H        6.79765058      20.99120728      22.22726955
H        4.19839092      23.62610687      22.06823172
H        3.07733790      23.45271007      20.82443505
H        3.04400839      22.38888430      22.11965523
H        2.45819373      25.32867020      22.23567674
H        2.41295929      24.19955362      23.64048809
H        1.23233701      24.01449729      22.29231554
Pb       2.36705663      19.83652853      25.60328500
Pb       2.41402755      19.76020058      19.18594760
Pb       6.87186022      24.13493200      19.23108568
Pb       6.72937647      24.31045625      25.64659616
I        4.05350155      22.57090187      25.69789564
I        0.76234953      25.87022781      25.72827910
I        8.43991062      21.61777586      25.76288911
I        5.15799227      18.32874443      25.62149993
I        0.90198094      22.54755723      19.20362578
I        4.18286744      25.84741309      19.35337789
I        5.13954464      21.45709396      19.28193366
I        8.42587106      18.15084390      19.30954352
I        2.45527411      19.94376318      15.99157518
I        2.55768277      19.88879739      22.40873579
I        6.67161206      24.23866866      22.46607752
I        6.79392268      24.07072052      16.04908937
C       15.48175136       2.17995735       3.28845018
C       11.15718449       6.94282245       3.27992012
C       15.64400231       2.49231402       9.69357012
C       10.89782474       6.82732664       9.70347256
N       14.58974820       3.12766732       2.58561340
N       10.26114129       5.97376478       2.61271174
N       14.68757626       1.58070568       9.02966270
N       11.83586499       5.92301243       9.00356512
H       12.19688006       6.71824674       3.00074087
H       11.03240742       6.85518505       4.36837140
H       10.89398572       7.95693617       2.94621895
H       10.47709297       4.98701488       2.88742902
H       10.35697712       6.02783025       1.57784108
H        9.25404881       6.15351333       2.83716285
H       14.67221011       3.02074980       1.55370556
H       14.82074593       4.12294799       2.81520405
H       13.58342515       2.96719636       2.82970149
H       16.52097509       2.38009312       2.98979708
H       15.20603705       1.15397403       3.00521735
H       15.36701249       2.31609032       4.37298082
H       14.85423545       0.58049641       9.29132812
H       14.77385114       1.63806258       7.99417205
H       13.69500222       1.81091098       9.27030162
H       16.66518799       2.21352298       9.39601882
H       15.52731679       2.40242238      10.78273819
H       15.43328260       3.52341539       9.37471993
H       12.83402293       6.15831498       9.21568210
H       11.71296992       5.98491818       7.97188543
H       11.67964040       4.92109241       9.26710560
H       11.09382574       7.86087831       9.38312712
H       11.04859131       6.73176173      10.78793847
H        9.86796902       6.54670540       9.43976591
Pb      11.00268864       2.36873664      12.75073538
Pb      11.04965957       2.29240869       6.33339797
Pb      15.50749223       6.66714012       6.37853605
Pb      15.36500848       6.84266436      12.79404654
I       12.68913356       5.10310998      12.84534602
I        9.39798154       8.40243592      12.87572948
I       17.07554263       4.14998397      12.91033949
I       13.79362429       0.86095254      12.76895031
I        9.53761295       5.07976534       6.35107616
I       12.81849945       8.37962120       6.50082827
I       13.77517665       3.98930207       6.42938404
I       17.06150307       0.68305201       6.45699390
I       11.09090612       2.47597129       3.13902555
I       11.19331479       2.42100550       9.55618617
I       15.30724407       6.77087677       9.61352790
I       15.42955470       6.60292863       3.19653975
C       15.53441294       2.22046376      16.12302206
C       11.20984606       6.98332886      16.11449200
C       15.69666388       2.53282042      22.52814200
C       10.95048631       6.86783304      22.53804444
N       14.64240977       3.16817372      15.42018528
N       10.31380286       6.01427118      15.44728362
N       14.74023784       1.62121209      21.86423458
N       11.88852657       5.96351883      21.83813701
H       12.24954164       6.75875315      15.83531275
H       11.08506899       6.89569145      17.20294328
H       10.94664729       7.99744258      15.78079083
H       10.52975454       5.02752128      15.72200090
H       10.40963870       6.06833665      14.41241297
H        9.30671039       6.19401973      15.67173473
H       14.72487168       3.06125620      14.38827744
H       14.87340751       4.16345439      15.64977593
H       13.63608673       3.00770276      15.66427338
H       16.57363666       2.42059952      15.82436896
H       15.25869863       1.19448043      15.83978923
H       15.41967407       2.35659673      17.20755271
H       14.90689702       0.62100281      22.12590000
H       14.82651271       1.67856898      20.82874393
H       13.74766379       1.85141738      22.10487350
H       16.71784956       2.25402939      22.23059070
H       15.57997836       2.44292878      23.61731007
H       15.48594417       3.56392179      22.20929181
H       12.88668450       6.19882138      22.05025398
H       11.76563149       6.02542459      20.80645731
H       11.73230198       4.96159881      22.10167749
H       11.14648732       7.90138471      22.21769900
H       11.10125288       6.77226813      23.62251035
H        9.92063060       6.58721180      22.27433779
Pb      11.05535022       2.40924304      25.58530726
Pb      11.10232114       2.33291509      19.16796986
Pb      15.56015381       6.70764652      19.21310794
Pb      15.41767005       6.88317077      25.62861842
I       12.74179513       5.14361638      25.67991790
I        9.45064311       8.44294232      25.71030136
I       17.12820420       4.19049037      25.74491137
I       13.84628586       0.90145894      25.60352219
I        9.59027453       5.12027174      19.18564804
I       12.87116103       8.42012760      19.33540015
I       13.82783822       4.02980848      19.26395592
I       17.11416465       0.72355841      19.29156578
I       11.14356770       2.51647769      15.97359744
I       11.24597636       2.46151190      22.39075805
I       15.35990565       6.81138317      22.44809978
I       15.48221627       6.64343503      16.03111163
C       15.48518600      10.89520002       3.31778220
C       11.16061912      15.65806512       3.30925213
C       15.64743694      11.20755668       9.72290213
C       10.90125937      15.54256930       9.73280458
N       14.59318283      11.84290998       2.61494541
N       10.26457592      14.68900745       2.64204376
N       14.69101090      10.29594835       9.05899472
N       11.83929963      14.63825509       9.03289714
H       12.20031470      15.43348941       3.03007289
H       11.03584205      15.57042772       4.39770341
H       10.89742035      16.67217884       2.97555097
H       10.48052760      13.70225755       2.91676104
H       10.36041176      14.74307292       1.60717310
H        9.25748344      14.86875599       2.86649486
H       14.67564474      11.73599246       1.58303757
H       14.82418057      12.83819065       2.84453606
H       13.58685979      11.68243903       2.85903351
H       16.52440972      11.09533578       3.01912910
H       15.20947169       9.86921669       3.03454936
H       15.37044713      11.03133299       4.40231284
H       14.85767008       9.29573907       9.32066014
H       14.77728577      10.35330524       8.02350407
H       13.69843685      10.52615364       9.29963363
H       16.66862262      10.92876565       9.42535084
H       15.53075142      11.11766504      10.81207021
H       15.43671723      12.23865805       9.40405194
H       12.83745756      14.87355765       9.24501411
H       11.71640455      14.70016085       8.00121745
H       11.68307503      13.63633507       9.29643762
H       11.09726038      16.57612097       9.41245914
H       11.05202594      15.44700439      10.81727049
H        9.87140365      15.26194806       9.46909793
Pb      11.00612328      11.08397931      12.78006739
Pb      11.05309420      11.00765135       6.36272999
Pb      15.51092687      15.38238278       6.40786807
Pb      15.36844311      15.55790703      12.82337856
I       12.69256819      13.81835265      12.87467804
I        9.40141617      17.11767858      12.90506150
I       17.07897726      12.86522663      12.93967151
I       13.79705892       9.57619520      12.79828233
I        9.54104759      13.79500801       6.38040818
I       12.82193408      17.09486386       6.53016029
I       13.77861128      12.70454474       6.45871605
I       17.06493771       9.39829468       6.48632592
I       11.09434076      11.19121395       3.16835757
I       11.19674942      11.13624816       9.58551818
I       15.31067871      15.48611943       9.64285991
I       15.43298933      15.31817129       3.22587177
C       15.53784757      10.93570642      16.15235408
C       11.21328070      15.69857152      16.14382401
C       15.70009851      11.24806309      22.55747402
C       10.95392095      15.58307571      22.56737646
N       14.64584440      11.88341638      15.44951730
N       10.31723750      14.72951385      15.47661564
N       14.74367247      10.33645475      21.89356660
N       11.89196120      14.67876149      21.86746902
H       12.25297627      15.47399581      15.86464477
H       11.08850363      15.61093412      17.23227530
H       10.95008193      16.71268524      15.81012285
H       10.53318918      13.74276395      15.75133292
H       10.41307333      14.78357932      14.44174498
H        9.31014502      14.90926239      15.70106674
H       14.72830632      11.77649886      14.41760946
H       14.87684214      12.87869705      15.67910795
H       13.63952136      11.72294543      15.69360539
H       16.57707130      11.13584218      15.85370098
H       15.26213326       9.90972309      15.86912125
H       15.42310870      11.07183939      17.23688472
H       14.91033166       9.33624548      22.15523202
H       14.82994735      10.39381165      20.85807595
H       13.75109843      10.56666005      22.13420551
H       16.72128420      10.96927205      22.25992272
H       15.58341300      11.15817144      23.64664209
H       15.48937880      12.27916446      22.23862382
H       12.89011914      14.91406405      22.07958600
H       11.76906613      14.74066725      20.83578933
H       11.73573661      13.67684148      22.13100950
H       11.14992195      16.61662738      22.24703102
H       11.10468752      15.48751080      23.65184237
H        9.92406523      15.30245446      22.30366981
Pb      11.05878485      11.12448571      25.61463927
Pb      11.10575578      11.04815775      19.19730187
Pb      15.56358844      15.42288918      19.24243995
Pb      15.42110469      15.59841343      25.65795044
I       12.74522977      13.85885905      25.70924992
I        9.45407775      17.15818499      25.73963338
I       17.13163884      12.90573303      25.77424339
I       13.84972049       9.61670160      25.63285421
I        9.59370916      13.83551441      19.21498006
I       12.87459566      17.13537027      19.36473217
I       13.83127286      12.74505114      19.29328794
I       17.11759928       9.43880108      19.32089780
I       11.14700233      11.23172036      16.00292945
I       11.24941099      11.17675456      22.42009006
I       15.36334028      15.52662583      22.47743179
I       15.48565091      15.35867769      16.06044365
C       15.48862063      19.61044268       3.34711421
C       11.16405375      24.37330778       3.33858415
C       15.65087157      19.92279935       9.75223415
C       10.90469401      24.25781197       9.76213659
N       14.59661746      20.55815265       2.64427743
N       10.26801056      23.40425011       2.67137577
N       14.69444553      19.01119101       9.08832673
N       11.84273426      23.35349776       9.06222915
H       12.20374933      24.14873207       3.05940490
H       11.03927669      24.28567038       4.42703543
H       10.90085498      25.38742150       3.00488298
H       10.48396224      22.41750021       2.94609305
H       10.36384639      23.45831558       1.63650511
H        9.26091808      23.58399866       2.89582688
H       14.67907938      20.45123513       1.61236959
H       14.82761520      21.55343332       2.87386808
H       13.59029442      20.39768169       2.88836553
H       16.52784436      19.81057844       3.04846111
H       15.21290632      18.58445935       3.06388138
H       15.37388176      19.74657565       4.43164486
H       14.86110472      18.01098174       9.34999215
H       14.78072041      19.06854791       8.05283608
H       13.70187149      19.24139631       9.32896565
H       16.67205726      19.64400831       9.45468285
H       15.53418606      19.83290771      10.84140222
H       15.44015186      20.95390072       9.43338396
H       12.84089220      23.58880031       9.27434613
H       11.71983919      23.41540351       8.03054946
H       11.68650967      22.35157774       9.32576963
H       11.10069501      25.29136364       9.44179115
H       11.05546058      24.16224706      10.84660250
H        9.87483829      23.97719073       9.49842994
Pb      11.00955791      19.79922197      12.80939941
Pb      11.05652883      19.72289402       6.39206200
Pb      15.51436150      24.09762544       6.43720008
Pb      15.37187775      24.27314969      12.85271057
I       12.69600283      22.53359531      12.90401005
I        9.40485081      25.83292125      12.93439351
I       17.08241190      21.58046930      12.96900352
I       13.80049355      18.29143787      12.82761434
I        9.54448222      22.51025067       6.40974019
I       12.82536872      25.81010653       6.55949230
I       13.78204592      21.41978740       6.48804807
I       17.06837234      18.11353734       6.51565793
I       11.09777539      19.90645662       3.19768958
I       11.20018405      19.85149083       9.61485020
I       15.31411334      24.20136210       9.67219193
I       15.43642397      24.03341396       3.25520378
C       15.54128221      19.65094909      16.18168610
C       11.21671533      24.41381419      16.17315603
C       15.70353315      19.96330575      22.58680603
C       10.95735558      24.29831837      22.59670848
N       14.64927904      20.59865905      15.47884931
N       10.32067213      23.44475651      15.50594766
N       14.74710710      19.05169742      21.92289861
N       11.89539583      23.39400416      21.89680104
H       12.25641090      24.18923848      15.89397678
H       11.09193826      24.32617678      17.26160731
H       10.95351656      25.42792790      15.83945487
H       10.53662381      22.45800661      15.78066493
H       10.41650797      23.49882198      14.47107700
H        9.31357965      23.62450506      15.73039876
H       14.73174095      20.49174153      14.44694147
H       14.88027678      21.59393972      15.70843996
H       13.64295599      20.43818809      15.72293741
H       16.58050593      19.85108485      15.88303299
H       15.26556790      18.62496576      15.89845326
H       15.42654333      19.78708206      17.26621674
H       14.91376629      18.05148814      22.18456403
H       14.83338198      19.10905431      20.88740796
H       13.75453306      19.28190271      22.16353753
H       16.72471883      19.68451472      22.28925473
H       15.58684763      19.87341411      23.67597411
H       15.49281344      20.99440712      22.26795584
H       12.89355377      23.62930671      22.10891801
H       11.77250076      23.45590992      20.86512134
H       11.73917124      22.39208414      22.16034152
H       11.15335659      25.33187004      22.27636303
H       11.10812215      24.20275346      23.68117438
H        9.92749986      24.01769713      22.33300183
Pb      11.06221949      19.83972837      25.64397129
Pb      11.10919041      19.76340042      19.22663389
Pb      15.56702307      24.13813185      19.27177197
Pb      15.42453932      24.31365610      25.68728246
I       12.74866440      22.57410171      25.73858193
I        9.45751238      25.87342765      25.76896539
I       17.13507347      21.62097570      25.80357541
I       13.85315513      18.33194427      25.66218622
I        9.59714380      22.55075707      19.24431207
I       12.87803029      25.85061293      19.39406418
I       13.83470749      21.46029380      19.32261995
I       17.12103391      18.15404374      19.35022981
I       11.15043697      19.94696302      16.03226147
I       11.25284563      19.89199723      22.44942208
I       15.36677491      24.24186850      22.50676381
I       15.48908554      24.07392036      16.08977566
C       24.17691422       2.18315720       3.32913647
C       19.85234734       6.94602230       3.32060641
C       24.33916516       2.49551386       9.73425641
C       19.59298759       6.83052648       9.74415885
N       23.28491105       3.13086716       2.62629969
N       18.95630414       5.97696462       2.65339803
N       23.38273912       1.58390553       9.07034899
N       20.53102785       5.92621227       9.04425141
H       20.89204292       6.72144659       3.04142716
H       19.72757028       6.85838489       4.40905769
H       19.58914857       7.96013602       2.98690524
H       19.17225582       4.99021472       2.92811531
H       19.05213998       6.03103009       1.61852737
H       17.94921167       6.15671317       2.87784914
H       23.36737297       3.02394964       1.59439185
H       23.51590879       4.12614783       2.85589034
H       22.27858801       2.97039620       2.87038778
H       25.21613794       2.38329296       3.03048337
H       23.90119991       1.15717387       3.04590364
H       24.06217535       2.31929017       4.41366711
H       23.54939831       0.58369625       9.33201441
H       23.46901400       1.64126242       8.03485834
H       22.39016508       1.81411082       9.31098791
H       25.36035084       2.21672283       9.43670511
H       24.22247964       2.40562222      10.82342448
H       24.12844545       3.52661523       9.41540622
H       21.52918579       6.16151482       9.25636839
H       20.40813277       5.98811803       8.01257172
H       20.37480326       4.92429225       9.30779189
H       19.78898860       7.86407815       9.42381341
H       19.74375416       6.73496157      10.82862476
H       18.56313188       6.54990524       9.48045220
Pb      19.69785150       2.37193648      12.79142167
Pb      19.74482242       2.29560853       6.37408426
Pb      24.20265509       6.67033996       6.41922234
Pb      24.06017133       6.84586421      12.83473283
I       21.38429641       5.10630982      12.88603231
I       18.09314440       8.40563576      12.91641577
I       25.77070548       4.15318381      12.95102578
I       22.48878714       0.86415238      12.80963660
I       18.23277581       5.08296518       6.39176245
I       21.51366231       8.38282104       6.54151456
I       22.47033950       3.99250191       6.47007033
I       25.75666593       0.68625185       6.49768019
I       19.78606898       2.47917113       3.17971184
I       19.88847764       2.42420534       9.59687246
I       24.00240693       6.77407661       9.65421419
I       24.12471755       6.60612847       3.23722604
C       24.22957579       2.22366360      16.16370835
C       19.90500892       6.98652870      16.15517829
C       24.39182674       2.53602026      22.56882829
C       19.64564917       6.87103288      22.57873074
N       23.33757263       3.17137356      15.46087157
N       19.00896572       6.01747103      15.48796992
N       23.43540069       1.62441193      21.90492087
N       20.58368942       5.96671867      21.87882330
H       20.94470449       6.76195299      15.87599904
H       19.78023185       6.89889129      17.24362957
H       19.64181015       8.00064242      15.82147713
H       19.22491740       5.03072113      15.76268719
H       19.10480155       6.07153649      14.45309926
H       18.00187324       6.19721957      15.71242102
H       23.42003454       3.06445604      14.42896373
H       23.56857036       4.16665423      15.69046222
H       22.33124958       3.01090261      15.70495967
H       25.26879952       2.42379936      15.86505525
H       23.95386148       1.19768027      15.88047552
H       24.11483692       2.35979657      17.24823900
H       23.60205988       0.62420265      22.16658629
H       23.52167557       1.68176882      20.86943022
H       22.44282665       1.85461722      22.14555979
H       25.41301242       2.25722923      22.27127699
H       24.27514122       2.44612862      23.65799636
H       24.18110703       3.56712163      22.24997810
H       21.58184736       6.20202122      22.09094027
H       20.46079435       6.02862443      20.84714360
H       20.42746483       4.96479865      22.14236378
H       19.84165018       7.90458455      22.25838529
H       19.79641574       6.77546797      23.66319664
H       18.61579345       6.59041164      22.31502409
Pb      19.75051307       2.41244289      25.62599355
Pb      19.79748400       2.33611493      19.20865615
Pb      24.25531666       6.71084636      19.25379423
Pb      24.11283291       6.88637061      25.66930471
I       21.43695799       5.14681622      25.72060419
I       18.14580597       8.44614216      25.75098765
I       25.82336706       4.19369021      25.78559766
I       22.54144872       0.90465878      25.64420848
I       18.28543738       5.12347159      19.22633433
I       21.56632388       8.42332744      19.37608644
I       22.52300108       4.03300832      19.30464221
I       25.80932750       0.72675826      19.33225207
I       19.83873055       2.51967753      16.01428373
I       19.94113922       2.46471174      22.43144434
I       24.05506850       6.81458301      22.48878607
I       24.17737913       6.64663487      16.07179792
C       24.18034885      10.89839986       3.35846849
C       19.85578198      15.66126496       3.34993842
C       24.34259980      11.21075653       9.76358842
C       19.59642223      15.54576915       9.77349087
N       23.28834569      11.84610982       2.65563170
N       18.95973878      14.69220729       2.68273005
N       23.38617375      10.29914819       9.09968101
N       20.53446248      14.64145493       9.07358343
H       20.89547755      15.43668925       3.07075918
H       19.73100491      15.57362756       4.43838970
H       19.59258321      16.67537868       3.01623726
H       19.17569046      13.70545739       2.95744733
H       19.05557461      14.74627276       1.64785939
H       17.95264630      14.87195583       2.90718115
H       23.37080760      11.73919230       1.62372386
H       23.51934342      12.84139049       2.88522235
H       22.28202264      11.68563887       2.89971980
H       25.21957258      11.09853562       3.05981539
H       23.90463454       9.87241653       3.07523566
H       24.06560998      11.03453283       4.44299913
H       23.55283294       9.29893892       9.36134643
H       23.47244863      10.35650508       8.06419036
H       22.39359971      10.52935349       9.34031992
H       25.36378548      10.93196549       9.46603713
H       24.22591428      11.12086488      10.85275650
H       24.13188008      12.24185790       9.44473823
H       21.53262042      14.87675749       9.28570040
H       20.41156741      14.70336069       8.04190374
H       20.37823789      13.63953492       9.33712391
H       19.79242323      16.57932082       9.45314543
H       19.74718880      15.45020424      10.85795678
H       18.56656651      15.26514790       9.50978422
Pb      19.70128613      11.08717915      12.82075368
Pb      19.74825706      11.01085119       6.40341628
Pb      24.20608972      15.38558262       6.44855436
Pb      24.06360597      15.56110687      12.86406485
I       21.38773105      13.82155249      12.91536433
I       18.09657903      17.12087843      12.94574779
I       25.77414012      12.86842647      12.98035780
I       22.49222178       9.57939504      12.83896862
I       18.23621044      13.79820785       6.42109447
I       21.51709694      17.09806371       6.57084658
I       22.47377414      12.70774458       6.49940234
I       25.76010056       9.40149452       6.52701221
I       19.78950361      11.19441380       3.20904386
I       19.89191228      11.13944800       9.62620447
I       24.00584156      15.48931927       9.68354620
I       24.12815219      15.32137113       3.26655806
C       24.23301043      10.93890626      16.19304037
C       19.90844355      15.70177136      16.18451030
C       24.39526137      11.25126293      22.59816031
C       19.64908380      15.58627555      22.60806275
N       23.34100726      11.88661623      15.49020359
N       19.01240035      14.73271369      15.51730193
N       23.43883533      10.33965459      21.93425289
N       20.58712406      14.68196133      21.90815531
H       20.94813913      15.47719565      15.90533106
H       19.78366648      15.61413396      17.27296159
H       19.64524478      16.71588508      15.85080914
H       19.22835203      13.74596379      15.79201921
H       19.10823619      14.78677916      14.48243127
H       18.00530787      14.91246223      15.74175304
H       23.42346917      11.77969871      14.45829575
H       23.57200500      12.88189690      15.71979424
H       22.33468422      11.72614527      15.73429168
H       25.27223415      11.13904202      15.89438727
H       23.95729612       9.91292293      15.90980754
H       24.11827156      11.07503923      17.27757101
H       23.60549451       9.33944532      22.19591831
H       23.52511020      10.39701149      20.89876224
H       22.44626128      10.56985989      22.17489180
H       25.41644705      10.97247189      22.30060901
H       24.27857585      11.16137129      23.68732838
H       24.18454166      12.28236430      22.27931011
H       21.58528199      14.91726389      22.12027229
H       20.46422898      14.74386709      20.87647562
H       20.43089946      13.68004132      22.17169579
H       19.84508481      16.61982722      22.28771731
H       19.79985037      15.49071064      23.69252866
H       18.61922809      15.30565431      22.34435610
Pb      19.75394771      11.12768555      25.65532556
Pb      19.80091863      11.05135760      19.23798816
Pb      24.25875130      15.42608902      19.28312624
Pb      24.11626754      15.60161327      25.69863673
I       21.44039262      13.86205889      25.74993621
I       18.14924060      17.16138483      25.78031967
I       25.82680169      12.90893287      25.81492968
I       22.54488335       9.61990145      25.67354050
I       18.28887202      13.83871425      19.25566635
I       21.56975852      17.13857011      19.40541846
I       22.52643571      12.74825098      19.33397423
I       25.81276214       9.44200092      19.36158409
I       19.84216519      11.23492020      16.04361574
I       19.94457385      11.17995441      22.46077635
I       24.05850314      15.52982568      22.51811808
I       24.18081376      15.36187753      16.10112994
C       24.18378349      19.61364252       3.38780050
C       19.85921661      24.37650763       3.37927044
C       24.34603443      19.92599919       9.79292044
C       19.59985686      24.26101181       9.80282288
N       23.29178032      20.56135249       2.68496372
N       18.96317341      23.40744995       2.71206206
N       23.38960839      19.01439086       9.12901302
N       20.53789712      23.35669760       9.10291544
H       20.89891219      24.15193192       3.10009119
H       19.73443954      24.28887022       4.46772172
H       19.59601784      25.39062134       3.04556927
H       19.17912509      22.42070005       2.98677934
H       19.05900925      23.46151542       1.67719141
H       17.95608093      23.58719850       2.93651317
H       23.37424223      20.45443497       1.65305588
H       23.52277806      21.55663316       2.91455437
H       22.28545728      20.40088153       2.92905182
H       25.22300721      19.81377829       3.08914740
H       23.90806918      18.58765920       3.10456767
H       24.06904462      19.74977549       4.47233115
H       23.55626757      18.01418158       9.39067844
H       23.47588326      19.07174775       8.09352237
H       22.39703434      19.24459615       9.36965194
H       25.36722011      19.64720816       9.49536914
H       24.22934891      19.83610755      10.88208851
H       24.13531472      20.95710056       9.47407025
H       21.53605505      23.59200015       9.31503242
H       20.41500204      23.41860336       8.07123575
H       20.38167252      22.35477758       9.36645592
H       19.79585787      25.29456348       9.48247744
H       19.75062343      24.16544690      10.88728879
H       18.57000114      23.98039057       9.53911623
Pb      19.70472077      19.80242181      12.85008570
Pb      19.75169169      19.72609386       6.43274829
Pb      24.20952436      24.10082529       6.47788638
Pb      24.06704060      24.27634953      12.89339686
I       21.39116568      22.53679515      12.94469634
I       18.10001366      25.83612109      12.97507980
I       25.77757475      21.58366914      13.00968981
I       22.49565641      18.29463771      12.86830063
I       18.23964508      22.51345051       6.45042648
I       21.52053157      25.81330637       6.60017859
I       22.47720877      21.42298724       6.52873436
I       25.76353520      18.11673718       6.55634422
I       19.79293825      19.90965646       3.23837587
I       19.89534691      19.85469067       9.65553649
I       24.00927620      24.20456194       9.71287822
I       24.13158682      24.03661380       3.29589007
C       24.23644506      19.65414893      16.22237239
C       19.91187819      24.41701403      16.21384232
C       24.39869600      19.96650559      22.62749232
C       19.65251844      24.30151821      22.63739477
N       23.34444189      20.60185889      15.51953560
N       19.01583499      23.44795635      15.54663395
N       23.44226996      19.05489726      21.96358490
N       20.59055869      23.39720400      21.93748733
H       20.95157376      24.19243832      15.93466307
H       19.78710112      24.32937662      17.30229360
H       19.64867941      25.43112775      15.88014116
H       19.23178667      22.46120646      15.82135123
H       19.11167082      23.50202182      14.51176329
H       18.00874251      23.62770490      15.77108505
H       23.42690381      20.49494137      14.48762776
H       23.57543963      21.59713956      15.74912625
H       22.33811885      20.44138794      15.76362370
H       25.27566879      19.85428469      15.92371929
H       23.96073075      18.62816560      15.93913955
H       24.12170619      19.79028190      17.30690303
H       23.60892915      18.05468798      22.22525032
H       23.52854484      19.11225415      20.92809426
H       22.44969592      19.28510255      22.20422382
H       25.41988169      19.68771456      22.32994102
H       24.28201049      19.87661395      23.71666040
H       24.18797629      20.99760696      22.30864213
H       21.58871663      23.63250655      22.14960430
H       20.46766362      23.45910976      20.90580763
H       20.43433410      22.39528398      22.20102781
H       19.84851944      25.33506988      22.31704933
H       19.80328501      24.20595330      23.72186067
H       18.62266272      24.02089697      22.37368812
Pb      19.75738234      19.84292822      25.68465758
Pb      19.80435326      19.76660026      19.26732018
Pb      24.26218593      24.14133169      19.31245826
Pb      24.11970218      24.31685594      25.72796875
I       21.44382726      22.57730155      25.77926822
I       18.15267524      25.87662749      25.80965169
I       25.83023633      21.62417554      25.84426170
I       22.54831798      18.33514411      25.70287251
I       18.29230665      22.55395692      19.28499836
I       21.57319315      25.85381277      19.43475047
I       22.52987035      21.46349365      19.36330624
I       25.81619677      18.15724359      19.39091611
I       19.84559982      19.95016286      16.07294776
I       19.94800848      19.89519707      22.49010837
I       24.06193777      24.24506834      22.54745010
I       24.18424840      24.07712020      16.13046195
