768
Lattice="25.15367485553728 0.0038318232989956 0.2763975867079328 0.0023912644894932 24.915076165049825 -0.0014928269740472 0.2788214086784236 0.0001780899650824 25.494841250584113" Properties=species:S:1:pos:R:3 pbc="T T T"
C        2.50977523       3.11363966       2.94511813
N        3.86859641       3.11503773       3.53321840
H        2.59941594       3.11256145       1.84961609
H        1.97708849       4.01603309       3.27824994
H        1.97825505       2.21123361       3.28009843
H        4.41377018       3.96062031       3.24437298
H        4.41451606       2.26926804       3.24619746
H        3.86279548       3.11616208       4.57481169
Pb       6.01056676       6.22959059       6.29600281
I        5.75295525       6.22954994       3.09091150
I        5.65694025       3.11498556       0.21278274
I        2.78365260       6.22919234       5.90911792
C        2.57948058       3.11368418       9.31882844
N        3.93830176       3.11508225       9.90692871
H        2.66912129       3.11260597       8.22332640
H        2.04679384       4.01607761       9.65196025
H        2.04796040       2.21127813       9.65380875
H        4.48347553       3.96066483       9.61808329
H        4.48422141       2.26931256       9.61990777
H        3.93250083       3.11620661      10.94852200
Pb       6.08027211       6.22963512      12.66971312
I        5.82266060       6.22959447       9.46462181
I        5.72664560       3.11503008       6.58649306
I        2.85335795       6.22923686      12.28282823
C        2.64918593       3.11372871      15.69253875
N        4.00800711       3.11512677      16.28063903
H        2.73882664       3.11265050      14.59703671
H        2.11649919       4.01612214      16.02567057
H        2.11766576       2.21132265      16.02751906
H        4.55318089       3.96070935      15.99179360
H        4.55392676       2.26935709      15.99361808
H        4.00220618       3.11625113      17.32223231
Pb       6.14997747       6.22967964      19.04342343
I        5.89236596       6.22963899      15.83833212
I        5.79635095       3.11507460      12.96020337
I        2.92306331       6.22928139      18.65653854
C        2.71889128       3.11377323      22.06624906
N        4.07771246       3.11517130      22.65434934
H        2.80853199       3.11269502      20.97074703
H        2.18620455       4.01616666      22.39938088
H        2.18737111       2.21136717      22.40122937
H        4.62288624       3.96075388      22.36550392
H        4.62363212       2.26940161      22.36732840
H        4.07191153       3.11629565      23.69594262
Pb       6.21968282       6.22972416      25.41713374
I        5.96207131       6.22968351      22.21204244
I        5.86605630       3.11511913      19.33391368
I        2.99276866       6.22932591      25.03024885
C        2.51037304       9.34240870       2.94474492
N        3.86919422       9.34380677       3.53284519
H        2.60001375       9.34133049       1.84924288
H        1.97768630      10.24480213       3.27787673
H        1.97885287       8.44000265       3.27972523
H        4.41436800      10.18938935       3.24399977
H        4.41511388       8.49803708       3.24582425
H        3.86339329       9.34493112       4.57443848
Pb       6.01116458      12.45835963       6.29562960
I        5.75355307      12.45831898       3.09053829
I        5.65753806       9.34375460       0.21240954
I        2.78425042      12.45796138       5.90874471
C        2.58007840       9.34245323       9.31845523
N        3.93889958       9.34385129       9.90655551
H        2.66971911       9.34137501       8.22295319
H        2.04739166      10.24484666       9.65158705
H        2.04855822       8.44004717       9.65343554
H        4.48407335      10.18943387       9.61771008
H        4.48481923       8.49808161       9.61953456
H        3.93309864       9.34497565      10.94814879
Pb       6.08086993      12.45840416      12.66933991
I        5.82325842      12.45836351       9.46424860
I        5.72724341       9.34379912       6.58611985
I        2.85395577      12.45800590      12.28245502
C        2.64978375       9.34249775      15.69216554
N        4.00860493       9.34389581      16.28026582
H        2.73942446       9.34141954      14.59666351
H        2.11709701      10.24489118      16.02529736
H        2.11826357       8.44009169      16.02714585
H        4.55377870      10.18947839      15.99142040
H        4.55452458       8.49812613      15.99324488
H        4.00280400       9.34502017      17.32185910
Pb       6.15057528      12.45844868      19.04305022
I        5.89296377      12.45840803      15.83795892
I        5.79694877       9.34384365      12.95983016
I        2.92366112      12.45805043      18.65616533
C        2.71948910       9.34254227      22.06587586
N        4.07831028       9.34394034      22.65397613
H        2.80912981       9.34146406      20.97037382
H        2.18680236      10.24493570      22.39900767
H        2.18796892       8.44013622      22.40085617
H        4.62348406      10.18952292      22.36513071
H        4.62422993       8.49817065      22.36695519
H        4.07250935       9.34506469      23.69556942
Pb       6.22028064      12.45849320      25.41676054
I        5.96266912      12.45845255      22.21166923
I        5.86665412       9.34388817      19.33354048
I        2.99336648      12.45809495      25.02987565
C        2.51097086      15.57117774       2.94437171
N        3.86979204      15.57257581       3.53247199
H        2.60061157      15.57009953       1.84886967
H        1.97828412      16.47357117       3.27750353
H        1.97945068      14.66877169       3.27935202
H        4.41496581      16.41815839       3.24362656
H        4.41571169      14.72680612       3.24545104
H        3.86399111      15.57370017       4.57406527
Pb       6.01176239      18.68712868       6.29525639
I        5.75415088      18.68708803       3.09016508
I        5.65813588      15.57252364       0.21203633
I        2.78484823      18.68673042       5.90837150
C        2.58067621      15.57122227       9.31808203
N        3.93949739      15.57262033       9.90618230
H        2.67031692      15.57014406       8.22257999
H        2.04798947      16.47361570       9.65121384
H        2.04915604      14.66881621       9.65306233
H        4.48467117      16.41820291       9.61733688
H        4.48541704      14.72685065       9.61916136
H        3.93369646      15.57374469      10.94777558
Pb       6.08146775      18.68717320      12.66896670
I        5.82385624      18.68713255       9.46387540
I        5.72784123      15.57256816       6.58574664
I        2.85455359      18.68677495      12.28208181
C        2.65038156      15.57126679      15.69179234
N        4.00920274      15.57266486      16.27989261
H        2.74002227      15.57018858      14.59629030
H        2.11769483      16.47366022      16.02492415
H        2.11886139      14.66886073      16.02677265
H        4.55437652      16.41824744      15.99104719
H        4.55512240      14.72689517      15.99287167
H        4.00340181      15.57378921      17.32148590
Pb       6.15117310      18.68721772      19.04267702
I        5.89356159      18.68717707      15.83758571
I        5.79754658      15.57261269      12.95945696
I        2.92425894      18.68681947      18.65579213
C        2.72008692      15.57131131      22.06550265
N        4.07890810      15.57270938      22.65360292
H        2.80972763      15.57023310      20.97000061
H        2.18740018      16.47370474      22.39863447
H        2.18856674      14.66890526      22.40048296
H        4.62408187      16.41829196      22.36475750
H        4.62482775      14.72693969      22.36658198
H        4.07310716      15.57383373      23.69519621
Pb       6.22087845      18.68726224      25.41638733
I        5.96326694      18.68722159      22.21129602
I        5.86725193      15.57265721      19.33316727
I        2.99396429      18.68686399      25.02950244
C        2.51156868      21.79994679       2.94399851
N        3.87038986      21.80134485       3.53209878
H        2.60120939      21.79886857       1.84849647
H        1.97888194      22.70234022       3.27713032
H        1.98004850      20.89754073       3.27897881
H        4.41556363      22.64692743       3.24325336
H        4.41630951      20.95557517       3.24507784
H        3.86458892      21.80246921       4.57369206
Pb       6.01236021      24.91589772       6.29488319
I        5.75474870      24.91585707       3.08979188
I        5.65873369      21.80129268       0.21166312
I        2.78544605      24.91549946       5.90799830
C        2.58127403      21.79999131       9.31770882
N        3.94009521      21.80138937       9.90580909
H        2.67091474      21.79891310       8.22220678
H        2.04858729      22.70238474       9.65084063
H        2.04975385      20.89758525       9.65268913
H        4.48526898      22.64697195       9.61696367
H        4.48601486      20.95561969       9.61878815
H        3.93429428      21.80251373      10.94740238
Pb       6.08206556      24.91594224      12.66859350
I        5.82445405      24.91590159       9.46350219
I        5.72843905      21.80133721       6.58537344
I        2.85515140      24.91554399      12.28170861
C        2.65097938      21.80003583      15.69141913
N        4.00980056      21.80143390      16.27951940
H        2.74062009      21.79895762      14.59591709
H        2.11829264      22.70242926      16.02455095
H        2.11945920      20.89762978      16.02639944
H        4.55497434      22.64701648      15.99067398
H        4.55572021      20.95566421      15.99249846
H        4.00399963      21.80255825      17.32111269
Pb       6.15177092      24.91598676      19.04230381
I        5.89415940      24.91594611      15.83721250
I        5.79814440      21.80138173      12.95908375
I        2.92485676      24.91558851      18.65541892
C        2.72068473      21.80008035      22.06512944
N        4.07950591      21.80147842      22.65322972
H        2.81032544      21.79900214      20.96962741
H        2.18799799      22.70247378      22.39826126
H        2.18916456      20.89767430      22.40010975
H        4.62467969      22.64706100      22.36438430
H        4.62542557      20.95570873      22.36620878
H        4.07370498      21.80260277      23.69482300
Pb       6.22147627      24.91603128      25.41601412
I        5.96386476      24.91599063      22.21092282
I        5.86784975      21.80142625      19.33279406
I        2.99456211      24.91563303      25.02912923
C        8.79819394       3.11459762       3.01421752
N       10.15701512       3.11599568       3.60231780
H        8.88783465       3.11351941       1.91871549
H        8.26550720       4.01699105       3.34734934
H        8.26667377       2.21219156       3.34919783
H       10.70218890       3.96157826       3.31347237
H       10.70293477       2.27022600       3.31529685
H       10.15121419       3.11712004       4.64391108
Pb      12.29898548       6.23054855       6.36510220
I       12.04137397       6.23050790       3.16001089
I       11.94535896       3.11594351       0.28188214
I        9.07207132       6.23015030       5.97821731
C        8.86789929       3.11464214       9.38792784
N       10.22672047       3.11604021       9.97602811
H        8.95754000       3.11356393       8.29242580
H        8.33521255       4.01703557       9.72105965
H        8.33637912       2.21223609       9.72290814
H       10.77189425       3.96162279       9.68718269
H       10.77264013       2.27027052       9.68900717
H       10.22091954       3.11716456      11.01762139
Pb      12.36869083       6.23059307      12.73881252
I       12.11107932       6.23055242       9.53372121
I       12.01506431       3.11598804       6.65559245
I        9.14177667       6.23019482      12.35192762
C        8.93760464       3.11468666      15.76163815
N       10.29642583       3.11608473      16.34973842
H        9.02724536       3.11360845      14.66613611
H        8.40491791       4.01708009      16.09476996
H        8.40608447       2.21228061      16.09661846
H       10.84159960       3.96166731      16.06089300
H       10.84234548       2.27031504      16.06271748
H       10.29062489       3.11720908      17.39133171
Pb      12.43839618       6.23063759      19.11252283
I       12.18078467       6.23059694      15.90743152
I       12.08476966       3.11603256      13.02930277
I        9.21148202       6.23023934      18.72563794
C        9.00731000       3.11473118      22.13534846
N       10.36613118       3.11612925      22.72344873
H        9.09695071       3.11365297      21.03984642
H        8.47462326       4.01712461      22.46848028
H        8.47578982       2.21232513      22.47032877
H       10.91130495       3.96171183      22.43460331
H       10.91205083       2.27035957      22.43642779
H       10.36033025       3.11725361      23.76504202
Pb      12.50810153       6.23068212      25.48623314
I       12.25049002       6.23064147      22.28114183
I       12.15447502       3.11607708      19.40301308
I        9.28118737       6.23028386      25.09934825
C        8.79879176       9.34336666       3.01384432
N       10.15761294       9.34476473       3.60194459
H        8.88843247       9.34228845       1.91834228
H        8.26610502      10.24576009       3.34697613
H        8.26727158       8.44096060       3.34882462
H       10.70278671      10.19034731       3.31309917
H       10.70353259       8.49899504       3.31492365
H       10.15181201       9.34588908       4.64353788
Pb      12.29958329      12.45931759       6.36472900
I       12.04197178      12.45927694       3.15963769
I       11.94595678       9.34471256       0.28150893
I        9.07266913      12.45891934       5.97784411
C        8.86849711       9.34341118       9.38755463
N       10.22731829       9.34480925       9.97565490
H        8.95813782       9.34233297       8.29205259
H        8.33581037      10.24580461       9.72068644
H        8.33697693       8.44100513       9.72253494
H       10.77249206      10.19039183       9.68680948
H       10.77323794       8.49903956       9.68863396
H       10.22151736       9.34593360      11.01724819
Pb      12.36928864      12.45936211      12.73843931
I       12.11167713      12.45932146       9.53334800
I       12.01566213       9.34475708       6.65521925
I        9.14237448      12.45896386      12.35155442
C        8.93820246       9.34345570      15.76126494
N       10.29702364       9.34485377      16.34936522
H        9.02784317       9.34237749      14.66576290
H        8.40551572      10.24584913      16.09439676
H        8.40668229       8.44104965      16.09624525
H       10.84219742      10.19043635      16.06051979
H       10.84294329       8.49908408      16.06234427
H       10.29122271       9.34597813      17.39095850
Pb      12.43899400      12.45940664      19.11214962
I       12.18138249      12.45936599      15.90705831
I       12.08536748       9.34480160      13.02892956
I        9.21207984      12.45900838      18.72526473
C        9.00790781       9.34350023      22.13497525
N       10.36672899       9.34489829      22.72307553
H        9.09754852       9.34242202      21.03947322
H        8.47522108      10.24589366      22.46810707
H        8.47638764       8.44109417      22.46995556
H       10.91190277      10.19048087      22.43423011
H       10.91264865       8.49912861      22.43605459
H       10.36092806       9.34602265      23.76466881
Pb      12.50869935      12.45945116      25.48585993
I       12.25108784      12.45941051      22.28076863
I       12.15507283       9.34484612      19.40263987
I        9.28178519      12.45905291      25.09897504
C        8.79938957      15.57213570       3.01347111
N       10.15821075      15.57353377       3.60157138
H        8.88903028      15.57105749       1.91796907
H        8.26670283      16.47452913       3.34660292
H        8.26786940      14.66972965       3.34845142
H       10.70338453      16.41911635       3.31272596
H       10.70413041      14.72776408       3.31455044
H       10.15240982      15.57465812       4.64316467
Pb      12.30018111      18.68808663       6.36435579
I       12.04256960      18.68804598       3.15926448
I       11.94655459      15.57348160       0.28113573
I        9.07326695      18.68768838       5.97747090
C        8.86909493      15.57218022       9.38718142
N       10.22791611      15.57357829       9.97528170
H        8.95873564      15.57110201       8.29167938
H        8.33640819      16.47457365       9.72031324
H        8.33757475      14.66977417       9.72216173
H       10.77308988      16.41916087       9.68643627
H       10.77383576      14.72780860       9.68826075
H       10.22211517      15.57470264      11.01687498
Pb      12.36988646      18.68813115      12.73806610
I       12.11227495      18.68809050       9.53297479
I       12.01625994      15.57352612       6.65484604
I        9.14297230      18.68773290      12.35118121
C        8.93880028      15.57222474      15.76089173
N       10.29762146      15.57362281      16.34899201
H        9.02844099      15.57114653      14.66538970
H        8.40611354      16.47461817      16.09402355
H        8.40728010      14.66981869      16.09587204
H       10.84279523      16.41920539      16.06014659
H       10.84354111      14.72785313      16.06197107
H       10.29182053      15.57474717      17.39058529
Pb      12.43959181      18.68817568      19.11177641
I       12.18198030      18.68813503      15.90668511
I       12.08596530      15.57357064      13.02855635
I        9.21267765      18.68777742      18.72489152
C        9.00850563      15.57226927      22.13460205
N       10.36732681      15.57366733      22.72270232
H        9.09814634      15.57119106      21.03910001
H        8.47581889      16.47466270      22.46773386
H        8.47698545      14.66986321      22.46958236
H       10.91250059      16.41924991      22.43385690
H       10.91324646      14.72789765      22.43568138
H       10.36152588      15.57479169      23.76429561
Pb      12.50929717      18.68822020      25.48548673
I       12.25168565      18.68817955      22.28039542
I       12.15567065      15.57361516      19.40226667
I        9.28238301      18.68782195      25.09860184
C        8.79998739      21.80090474       3.01309790
N       10.15880857      21.80230281       3.60119818
H        8.88962810      21.79982653       1.91759586
H        8.26730065      22.70329817       3.34622972
H        8.26846721      20.89849869       3.34807821
H       10.70398234      22.64788539       3.31235275
H       10.70472822      20.95653312       3.31417723
H       10.15300764      21.80342716       4.64279146
Pb      12.30077892      24.91685567       6.36398258
I       12.04316741      24.91681502       3.15889127
I       11.94715241      21.80225064       0.28076252
I        9.07386476      24.91645742       5.97709769
C        8.86969274      21.80094926       9.38680821
N       10.22851392      21.80234733       9.97490849
H        8.95933345      21.79987105       8.29130618
H        8.33700600      22.70334269       9.71994003
H        8.33817257      20.89854321       9.72178852
H       10.77368770      22.64792991       9.68606307
H       10.77443357      20.95657764       9.68788755
H       10.22271299      21.80347169      11.01650177
Pb      12.37048428      24.91690020      12.73769289
I       12.11287277      24.91685955       9.53260159
I       12.01685776      21.80229516       6.65447283
I        9.14357012      24.91650194      12.35080800
C        8.93939809      21.80099379      15.76051853
N       10.29821927      21.80239185      16.34861880
H        9.02903880      21.79991558      14.66501649
H        8.40671136      22.70338722      16.09365034
H        8.40787792      20.89858773      16.09549884
H       10.84339305      22.64797443      16.05977338
H       10.84413893      20.95662217      16.06159786
H       10.29241834      21.80351621      17.39021209
Pb      12.44018963      24.91694472      19.11140321
I       12.18257812      24.91690407      15.90631190
I       12.08656311      21.80233968      13.02818315
I        9.21327547      24.91654647      18.72451832
C        9.00910345      21.80103831      22.13422884
N       10.36792463      21.80243638      22.72232911
H        9.09874416      21.79996010      21.03872680
H        8.47641671      22.70343174      22.46736066
H        8.47758327      20.89863225      22.46920915
H       10.91309840      22.64801896      22.43348369
H       10.91384428      20.95666669      22.43530817
H       10.36212369      21.80356073      23.76392240
Pb      12.50989498      24.91698924      25.48511352
I       12.25228347      24.91694859      22.28002221
I       12.15626846      21.80238421      19.40189346
I        9.28298082      24.91659099      25.09822863
C       15.08661265       3.11555557       3.08331692
N       16.44543384       3.11695364       3.67141719
H       15.17625336       3.11447736       1.98781488
H       14.55392592       4.01794900       3.41644873
H       14.55509248       2.21314952       3.41829723
H       16.99060761       3.96253622       3.38257177
H       16.99135349       2.27118395       3.38439625
H       16.43963290       3.11807799       4.71301048
Pb      18.58740419       6.23150650       6.43420160
I       18.32979268       6.23146586       3.22911029
I       18.23377767       3.11690147       0.35098154
I       15.36049003       6.23110825       6.04731671
C       15.15631801       3.11560010       9.45702723
N       16.51513919       3.11699816      10.04512751
H       15.24595872       3.11452188       8.36152519
H       14.62363127       4.01799353       9.79015905
H       14.62479783       2.21319404       9.79200754
H       17.06031296       3.96258074       9.75628208
H       17.06105884       2.27122848       9.75810656
H       16.50933826       3.11812252      11.08672079
Pb      18.65710954       6.23155103      12.80791191
I       18.39949803       6.23151038       9.60282060
I       18.30348303       3.11694599       6.72469185
I       15.43019538       6.23115278      12.42102702
C       15.22602336       3.11564462      15.83073754
N       16.58484454       3.11704268      16.41883782
H       15.31566407       3.11456641      14.73523551
H       14.69333662       4.01803805      16.16386936
H       14.69450318       2.21323856      16.16571785
H       17.13001831       3.96262527      16.12999240
H       17.13076419       2.27127300      16.13181688
H       16.57904361       3.11816704      17.46043110
Pb      18.72681489       6.23159555      19.18162222
I       18.46920338       6.23155490      15.97653092
I       18.37318838       3.11699052      13.09840216
I       15.49990073       6.23119730      18.79473733
C       15.29572871       3.11568914      22.20444786
N       16.65454989       3.11708721      22.79254813
H       15.38536942       3.11461093      21.10894582
H       14.76304197       4.01808257      22.53757967
H       14.76420854       2.21328309      22.53942817
H       17.19972367       3.96266979      22.50370271
H       17.20046954       2.27131752      22.50552719
H       16.64874896       3.11821156      23.83414142
Pb      18.79652025       6.23164007      25.55533254
I       18.53890874       6.23159942      22.35024123
I       18.44289373       3.11703504      19.47211248
I       15.56960609       6.23124182      25.16844765
C       15.08721047       9.34432461       3.08294371
N       16.44603165       9.34572268       3.67104399
H       15.17685118       9.34324640       1.98744167
H       14.55452373      10.24671804       3.41607553
H       14.55569030       8.44191856       3.41792402
H       16.99120543      10.19130526       3.38219856
H       16.99195130       8.49995299       3.38402304
H       16.44023072       9.34684704       4.71263727
Pb      18.58800201      12.46027555       6.43382839
I       18.33039050      12.46023490       3.22873708
I       18.23437549       9.34567051       0.35060833
I       15.36108785      12.45987729       6.04694350
C       15.15691582       9.34436914       9.45665403
N       16.51573700       9.34576720      10.04475430
H       15.24655653       9.34329093       8.36115199
H       14.62422908      10.24676257       9.78978584
H       14.62539565       8.44196308       9.79163433
H       17.06091078      10.19134978       9.75590888
H       17.06165666       8.49999752       9.75773336
H       16.50993607       9.34689156      11.08634758
Pb      18.65770736      12.46032007      12.80753871
I       18.40009585      12.46027942       9.60244740
I       18.30408084       9.34571503       6.72431864
I       15.43079320      12.45992182      12.42065381
C       15.22662117       9.34441366      15.83036434
N       16.58544236       9.34581173      16.41846461
H       15.31626189       9.34333545      14.73486230
H       14.69393444      10.24680709      16.16349615
H       14.69510100       8.44200761      16.16534465
H       17.13061613      10.19139431      16.12961919
H       17.13136201       8.50004204      16.13144367
H       16.57964142       9.34693608      17.46005790
Pb      18.72741271      12.46036459      19.18124902
I       18.46980120      12.46032394      15.97615771
I       18.37378619       9.34575956      13.09802896
I       15.50049855      12.45996634      18.79436413
C       15.29632653       9.34445818      22.20407465
N       16.65514771       9.34585625      22.79217492
H       15.38596724       9.34337997      21.10857261
H       14.76363979      10.24685161      22.53720647
H       14.76480635       8.44205213      22.53905496
H       17.20032148      10.19143883      22.50332950
H       17.20106736       8.50008656      22.50515398
H       16.64934678       9.34698060      23.83376821
Pb      18.79711806      12.46040911      25.55495933
I       18.53950655      12.46036846      22.34986802
I       18.44349155       9.34580408      19.47173927
I       15.57020390      12.46001086      25.16807444
C       15.08780829      15.57309366       3.08257051
N       16.44662947      15.57449172       3.67067078
H       15.17744900      15.57201544       1.98706847
H       14.55512155      16.47548709       3.41570232
H       14.55628811      14.67068760       3.41755081
H       16.99180324      16.42007430       3.38182536
H       16.99254912      14.72872204       3.38364984
H       16.44082854      15.57561608       4.71226407
Pb      18.58859982      18.68904459       6.43345519
I       18.33098831      18.68900394       3.22836388
I       18.23497331      15.57443955       0.35023512
I       15.36168566      18.68864634       6.04657030
C       15.15751364      15.57313818       9.45628082
N       16.51633482      15.57453624      10.04438109
H       15.24715435      15.57205997       8.36077878
H       14.62482690      16.47553161       9.78941263
H       14.62599346      14.67073212       9.79126113
H       17.06150859      16.42011883       9.75553567
H       17.06225447      14.72876656       9.75736015
H       16.51053389      15.57566060      11.08597438
Pb      18.65830517      18.68908911      12.80716550
I       18.40069366      18.68904846       9.60207419
I       18.30467866      15.57448408       6.72394544
I       15.43139101      18.68869086      12.42028061
C       15.22721899      15.57318270      15.82999113
N       16.58604017      15.57458077      16.41809141
H       15.31685970      15.57210449      14.73448909
H       14.69453225      16.47557613      16.16312295
H       14.69569882      14.67077665      16.16497144
H       17.13121395      16.42016335      16.12924598
H       17.13195982      14.72881108      16.13107046
H       16.58023924      15.57570512      17.45968469
Pb      18.72801053      18.68913363      19.18087581
I       18.47039902      18.68909298      15.97578450
I       18.37438401      15.57452860      13.09765575
I       15.50109637      18.68873538      18.79399092
C       15.29692434      15.57322722      22.20370144
N       16.65574552      15.57462529      22.79180172
H       15.38656505      15.57214901      21.10819941
H       14.76423761      16.47562065      22.53683326
H       14.76540417      14.67082117      22.53868175
H       17.20091930      16.42020787      22.50295630
H       17.20166518      14.72885560      22.50478078
H       16.64994459      15.57574964      23.83339500
Pb      18.79771588      18.68917815      25.55458612
I       18.54010437      18.68913751      22.34949482
I       18.44408936      15.57457312      19.47136606
I       15.57080172      18.68877990      25.16770123
C       15.08840610      21.80186270       3.08219730
N       16.44722728      21.80326076       3.67029757
H       15.17804681      21.80078449       1.98669526
H       14.55571936      22.70425613       3.41532911
H       14.55688593      20.89945664       3.41717761
H       16.99240106      22.64884334       3.38145215
H       16.99314694      20.95749108       3.38327663
H       16.44142635      21.80438512       4.71189086
Pb      18.58919764      24.91781363       6.43308198
I       18.33158613      24.91777298       3.22799067
I       18.23557112      21.80320859       0.34986192
I       15.36228348      24.91741538       6.04619709
C       15.15811146      21.80190722       9.45590761
N       16.51693264      21.80330529      10.04400789
H       15.24775217      21.80082901       8.36040557
H       14.62542472      22.70430065       9.78903943
H       14.62659128      20.89950117       9.79088792
H       17.06210641      22.64888787       9.75516246
H       17.06285229      20.95753560       9.75698694
H       16.51113170      21.80442964      11.08560117
Pb      18.65890299      24.91785815      12.80679229
I       18.40129148      24.91781750       9.60170098
I       18.30527647      21.80325312       6.72357223
I       15.43198883      24.91745990      12.41990740
C       15.22781681      21.80195174      15.82961792
N       16.58663799      21.80334981      16.41771820
H       15.31745752      21.80087353      14.73411589
H       14.69513007      22.70434517      16.16274974
H       14.69629663      20.89954569      16.16459823
H       17.13181176      22.64893239      16.12887278
H       17.13255764      20.95758012      16.13069726
H       16.58083706      21.80447416      17.45931148
Pb      18.72860834      24.91790267      19.18050260
I       18.47099683      24.91786202      15.97541130
I       18.37498183      21.80329764      13.09728254
I       15.50169418      24.91750442      18.79361771
C       15.29752216      21.80199626      22.20332824
N       16.65634334      21.80339433      22.79142851
H       15.38716287      21.80091805      21.10782620
H       14.76483542      22.70438969      22.53646005
H       14.76600198      20.89959021      22.53830855
H       17.20151712      22.64897691      22.50258309
H       17.20226299      20.95762464      22.50440757
H       16.65054241      21.80451869      23.83302180
Pb      18.79831370      24.91794720      25.55421292
I       18.54070218      24.91790655      22.34912161
I       18.44468718      21.80334216      19.47099285
I       15.57139954      24.91754894      25.16732803
C       21.37503137       3.11651353       3.15241632
N       22.73385255       3.11791160       3.74051659
H       21.46467208       3.11543532       2.05691428
H       20.84234463       4.01890696       3.48554813
H       20.84351119       2.21410747       3.48739662
H       23.27902632       3.96349418       3.45167117
H       23.27977220       2.27214191       3.45349565
H       22.72805162       3.11903595       4.78210988
Pb      24.87582290       6.23246446       6.50330100
I       24.61821139       6.23242381       3.29820969
I       24.52219639       3.11785943       0.42008093
I       21.64890874       6.23206621       6.11641611
C       21.44473672       3.11655805       9.52612663
N       22.80355790       3.11795612      10.11422690
H       21.53437743       3.11547984       8.43062459
H       20.91204998       4.01895148       9.85925844
H       20.91321655       2.21415200       9.86110694
H       23.34873168       3.96353870       9.82538148
H       23.34947755       2.27218643       9.82720596
H       22.79775697       3.11908047      11.15582019
Pb      24.94552826       6.23250898      12.87701131
I       24.68791675       6.23246833       9.67192000
I       24.59190174       3.11790395       6.79379125
I       21.71861410       6.23211073      12.49012642
C       21.51444207       3.11660257      15.89983694
N       22.87326325       3.11800064      16.48793722
H       21.60408278       3.11552436      14.80433490
H       20.98175533       4.01899600      16.23296876
H       20.98292190       2.21419652      16.23481725
H       23.41843703       3.96358322      16.19909179
H       23.41918291       2.27223095      16.20091627
H       22.86746232       3.11912500      17.52953050
Pb      25.01523361       6.23255351      19.25072162
I       24.75762210       6.23251286      16.04563031
I       24.66160709       3.11794847      13.16750156
I       21.78831945       6.23215525      18.86383673
C       21.58414742       3.11664710      22.27354725
N       22.94296861       3.11804516      22.86164753
H       21.67378814       3.11556889      21.17804522
H       21.05146069       4.01904053      22.60667907
H       21.05262725       2.21424104      22.60852756
H       23.48814238       3.96362774      22.57280211
H       23.48888826       2.27227548      22.57462659
H       22.93716767       3.11916952      23.90324081
Pb      25.08493896       6.23259803      25.62443193
I       24.82732745       6.23255738      22.41934063
I       24.73131244       3.11799299      19.54121187
I       21.85802480       6.23219978      25.23754704
C       21.37562918       9.34528257       3.15204311
N       22.73445037       9.34668064       3.74014338
H       21.46526989       9.34420436       2.05654107
H       20.84294245      10.24767600       3.48517492
H       20.84410901       8.44287652       3.48702342
H       23.27962414      10.19226322       3.45129796
H       23.28037002       8.50091095       3.45312244
H       22.72864943       9.34780499       4.78173667
Pb      24.87642072      12.46123350       6.50292779
I       24.61880921      12.46119285       3.29783648
I       24.52279420       9.34662847       0.41970773
I       21.64950656      12.46083525       6.11604290
C       21.44533454       9.34532709       9.52575342
N       22.80415572       9.34672516      10.11385370
H       21.53497525       9.34424888       8.43025138
H       20.91264780      10.24772052       9.85888524
H       20.91381436       8.44292104       9.86073373
H       23.34932949      10.19230774       9.82500827
H       23.35007537       8.50095547       9.82683275
H       22.79835479       9.34784951      11.15544698
Pb      24.94612607      12.46127802      12.87663810
I       24.68851456      12.46123737       9.67154679
I       24.59249956       9.34667299       6.79341804
I       21.71921191      12.46087977      12.48975321
C       21.51503989       9.34537162      15.89946373
N       22.87386107       9.34676968      16.48756401
H       21.60468060       9.34429340      14.80396170
H       20.98235315      10.24776505      16.23259555
H       20.98351971       8.44296556      16.23444404
H       23.41903484      10.19235226      16.19871859
H       23.41978072       8.50100000      16.20054307
H       22.86806014       9.34789404      17.52915729
Pb      25.01583142      12.46132255      19.25034841
I       24.75821991      12.46128190      16.04525711
I       24.66220491       9.34671751      13.16712835
I       21.78891726      12.46092429      18.86346352
C       21.58474524       9.34541614      22.27317405
N       22.94356642       9.34681420      22.86127432
H       21.67438595       9.34433793      21.17767201
H       21.05205850      10.24780957      22.60630586
H       21.05322507       8.44301008      22.60815436
H       23.48874020      10.19239678      22.57242890
H       23.48948607       8.50104452      22.57425338
H       22.93776549       9.34793856      23.90286761
Pb      25.08553678      12.46136707      25.62405873
I       24.82792527      12.46132642      22.41896742
I       24.73191026       9.34676204      19.54083867
I       21.85862262      12.46096882      25.23717384
C       21.37622700      15.57405161       3.15166990
N       22.73504818      15.57544968       3.73977018
H       21.46586771      15.57297340       2.05616786
H       20.84354026      16.47644504       3.48480172
H       20.84470683      14.67164556       3.48665021
H       23.28022196      16.42103226       3.45092475
H       23.28096783      14.72967999       3.45274923
H       22.72924725      15.57657403       4.78136346
Pb      24.87701854      18.69000254       6.50255458
I       24.61940703      18.68996189       3.29746327
I       24.52339202      15.57539751       0.41933452
I       21.65010438      18.68960429       6.11566969
C       21.44593235      15.57409613       9.52538022
N       22.80475353      15.57549420      10.11348049
H       21.53557306      15.57301792       8.42987818
H       20.91324561      16.47648956       9.85851203
H       20.91441218      14.67169008       9.86036052
H       23.34992731      16.42107678       9.82463507
H       23.35067319      14.72972451       9.82645955
H       22.79895260      15.57661856      11.15507377
Pb      24.94672389      18.69004707      12.87626489
I       24.68911238      18.69000642       9.67117359
I       24.59309737      15.57544203       6.79304483
I       21.71980973      18.68964881      12.48938000
C       21.51563770      15.57414066      15.89909053
N       22.87445889      15.57553872      16.48719080
H       21.60527842      15.57306245      14.80358849
H       20.98295097      16.47653409      16.23222234
H       20.98411753      14.67173460      16.23407084
H       23.41963266      16.42112130      16.19834538
H       23.42037854      14.72976904      16.20016986
H       22.86865795      15.57666308      17.52878409
Pb      25.01642924      18.69009159      19.24997521
I       24.75881773      18.69005094      16.04488390
I       24.66280272      15.57548655      13.16675515
I       21.78951508      18.68969334      18.86309032
C       21.58534306      15.57418518      22.27280084
N       22.94416424      15.57558325      22.86090111
H       21.67498377      15.57310697      21.17729880
H       21.05265632      16.47657861      22.60593266
H       21.05382288      14.67177912      22.60778115
H       23.48933801      16.42116583      22.57205569
H       23.49008389      14.72981356      22.57388017
H       22.93836331      15.57670760      23.90249440
Pb      25.08613459      18.69013611      25.62368552
I       24.82852308      18.69009546      22.41859421
I       24.73250808      15.57553108      19.54046546
I       21.85922043      18.68973786      25.23680063
C       21.37682482      21.80282065       3.15129670
N       22.73564600      21.80421872       3.73939697
H       21.46646553      21.80174244       2.05579466
H       20.84413808      22.70521408       3.48442851
H       20.84530464      20.90041460       3.48627700
H       23.28081977      22.64980130       3.45055155
H       23.28156565      20.95844903       3.45237603
H       22.72984507      21.80534307       4.78099025
Pb      24.87761635      24.91877158       6.50218138
I       24.62000484      24.91873093       3.29709007
I       24.52398984      21.80416655       0.41896131
I       21.65070219      24.91837333       6.11529649
C       21.44653017      21.80286518       9.52500701
N       22.80535135      21.80426324      10.11310728
H       21.53617088      21.80178696       8.42950497
H       20.91384343      22.70525861       9.85813882
H       20.91500999      20.90045912       9.85998732
H       23.35052512      22.64984582       9.82426186
H       23.35127100      20.95849356       9.82608634
H       22.79955042      21.80538760      11.15470057
Pb      24.94732170      24.91881611      12.87589169
I       24.68971019      24.91877546       9.67080038
I       24.59369519      21.80421107       6.79267163
I       21.72040754      24.91841785      12.48900680
C       21.51623552      21.80290970      15.89871732
N       22.87505670      21.80430776      16.48681760
H       21.60587623      21.80183149      14.80321528
H       20.98354878      22.70530313      16.23184914
H       20.98471535      20.90050364      16.23369763
H       23.42023048      22.64989034      16.19797217
H       23.42097635      20.95853808      16.19979665
H       22.86925577      21.80543212      17.52841088
Pb      25.01702706      24.91886063      19.24960200
I       24.75941555      24.91881998      16.04451069
I       24.66340054      21.80425560      13.16638194
I       21.79011290      24.91846238      18.86271711
C       21.58594087      21.80295422      22.27242763
N       22.94476205      21.80435229      22.86052791
H       21.67558158      21.80187601      21.17692560
H       21.05325414      22.70534765      22.60555945
H       21.05442070      20.90054817      22.60740794
H       23.48993583      22.64993487      22.57168249
H       23.49068171      20.95858260      22.57350697
H       22.93896112      21.80547664      23.90212119
Pb      25.08673241      24.91890515      25.62331231
I       24.82912090      24.91886450      22.41822101
I       24.73310589      21.80430012      19.54009225
I       21.85981825      24.91850690      25.23642742
